0	1
0	2
0	3
0	4
0	5
0	6
0	7
0	8
0	9
0	10
0	11
0	12
0	13
0	14
0	15
0	16
0	17
0	18
0	19
0	20
0	21
0	22
0	23
0	24
0	25
0	26
0	27
0	28
0	29
0	30
0	31
0	32
0	34
0	35
0	36
0	37
0	38
0	39
0	41
0	49
0	50
0	54
0	58
0	60
0	63
0	64
0	65
0	66
0	67
0	69
0	71
0	72
0	78
0	79
0	83
0	87
0	89
0	90
0	92
0	99
0	106
0	110
0	111
0	112
0	113
0	115
0	117
0	119
0	124
0	127
0	130
0	136
0	141
0	142
0	144
0	151
0	152
0	157
0	162
0	172
0	178
0	179
0	181
0	186
0	200
0	209
0	213
0	215
0	217
0	219
0	226
0	228
0	230
0	232
0	233
0	234
0	235
0	237
0	240
0	248
0	251
0	252
0	254
0	256
0	259
0	265
0	271
0	282
0	288
0	289
0	293
0	305
0	307
0	313
0	321
0	324
0	331
0	333
0	334
0	348
0	357
0	362
0	366
0	370
0	374
0	380
0	383
0	392
0	395
0	398
0	400
0	414
0	429
0	437
0	443
0	454
0	457
0	461
0	462
0	472
0	483
0	490
0	491
0	493
0	497
0	498
0	501
0	507
0	544
0	546
0	549
0	564
0	579
0	585
0	590
0	627
0	642
0	646
0	658
0	659
0	668
0	669
0	685
0	692
0	693
0	696
0	721
0	729
0	747
0	751
0	756
0	764
0	780
0	782
0	789
0	797
0	800
0	827
0	850
0	860
0	879
0	885
0	903
0	907
0	915
0	938
0	939
0	945
0	953
0	958
0	959
0	971
0	995
0	1020
0	1099
0	1103
0	1112
0	1137
0	1159
0	1183
0	1185
0	1190
0	1199
0	1222
0	1248
0	1289
0	1290
0	1291
0	1341
0	1384
0	1392
0	1398
0	1401
0	1444
0	1457
0	1476
0	1479
0	1505
0	1506
0	1516
0	1542
0	1561
0	1577
0	1609
0	1614
0	1621
0	1636
0	1655
0	1664
0	1665
0	1671
0	1697
0	1714
0	1735
0	1743
0	1761
0	1766
0	1804
0	1819
0	1822
0	1823
0	1832
0	1835
0	1845
0	1849
0	1851
0	1879
0	1901
0	1910
0	1925
0	1943
0	1952
0	1956
0	1962
0	1973
0	1974
0	1990
0	2001
0	2020
0	2029
0	2037
0	2061
0	2071
0	2094
0	2112
0	2117
0	2147
0	2155
0	2166
0	2201
0	2259
0	2295
0	2312
0	2315
0	2322
0	2325
0	2337
0	2356
0	2404
0	2417
0	2448
0	2450
0	2480
0	2484
0	2517
0	2614
0	2623
0	2650
0	2657
0	2658
0	2660
0	2665
0	2683
0	2761
0	2763
0	2764
0	2788
0	2794
0	2797
0	2813
0	2827
0	2861
0	2910
0	2935
0	3001
0	3010
0	3029
0	3033
0	3048
0	3054
0	3056
0	3079
0	3126
0	3152
0	3153
0	3166
0	3174
0	3201
0	3210
0	3245
0	3249
0	3266
0	3289
0	3298
0	3310
0	3313
0	3373
0	3419
0	3443
0	3491
0	3520
0	3562
0	3609
0	3622
0	3689
0	3710
0	3719
0	3756
0	3771
0	3776
0	3787
0	3842
0	3897
0	3898
0	3908
0	3939
0	3946
0	3953
0	3956
0	3987
0	4022
0	4130
0	4193
0	4224
0	4240
0	4267
0	4288
0	4335
0	4377
0	4497
0	4499
0	4522
0	4530
0	4546
0	4565
0	4572
0	4583
0	4623
0	4637
0	4675
0	4682
0	4690
0	4755
0	4774
0	4775
0	4823
0	4862
0	4864
0	4878
0	4915
0	4922
0	4931
0	4975
0	4980
1	17
1	20
1	21
1	22
1	23
1	24
1	25
1	30
1	31
1	33
1	37
1	41
1	44
1	48
1	50
1	55
1	59
1	74
1	75
1	89
1	117
1	119
1	120
1	121
1	133
1	139
1	140
1	145
1	155
1	159
1	170
1	176
1	180
1	193
1	198
1	237
1	244
1	269
1	270
1	273
1	295
1	310
1	323
1	340
1	361
1	369
1	375
1	404
1	407
1	422
1	437
1	456
1	457
1	464
1	546
1	563
1	575
1	588
1	661
1	667
1	682
1	710
1	728
1	771
1	860
1	890
1	895
1	954
1	1028
1	1064
1	1177
1	1181
1	1233
1	1326
1	1363
1	1484
1	1502
1	1570
1	1584
1	1600
1	1605
1	1606
1	1690
1	1697
1	1728
1	1908
1	1930
1	1968
1	2003
1	2140
1	2165
1	2218
1	2309
1	2321
1	2338
1	2379
1	2452
1	2464
1	2538
1	2555
1	2578
1	2626
1	2682
1	2801
1	2813
1	2870
1	2894
1	2933
1	3034
1	3044
1	3089
1	3136
1	3308
1	3378
1	3437
1	3558
1	3585
1	3650
1	3690
1	3692
1	3735
1	3806
1	3897
1	3958
1	3999
1	4053
1	4081
1	4122
1	4151
1	4315
1	4371
1	4496
1	4533
1	4534
1	4619
1	4630
1	4691
1	4791
2	16
2	18
2	21
2	24
2	31
2	33
2	45
2	57
2	58
2	69
2	71
2	76
2	82
2	83
2	97
2	100
2	121
2	125
2	129
2	150
2	152
2	171
2	210
2	225
2	231
2	246
2	247
2	249
2	250
2	265
2	270
2	285
2	325
2	328
2	361
2	408
2	417
2	488
2	505
2	520
2	592
2	668
2	792
2	819
2	830
2	831
2	912
2	938
2	947
2	961
2	993
2	1006
2	1045
2	1072
2	1076
2	1194
2	1489
2	1492
2	1504
2	1565
2	1714
2	1760
2	1774
2	1798
2	1806
2	1834
2	1874
2	1878
2	1903
2	1958
2	2007
2	2028
2	2055
2	2106
2	2133
2	2295
2	2352
2	2381
2	2442
2	2472
2	2523
2	2541
2	2668
2	2670
2	2697
2	2840
2	3117
2	3164
2	3190
2	3278
2	3436
2	3462
2	3526
2	3669
2	3746
2	3871
2	4035
2	4054
2	4128
2	4141
2	4190
2	4345
2	4376
2	4387
2	4407
2	4487
2	4576
2	4635
2	4641
2	4794
2	4870
2	4934
2	4991
3	16
3	17
3	18
3	19
3	20
3	21
3	22
3	24
3	29
3	30
3	35
3	36
3	78
3	84
3	85
3	88
3	101
3	113
3	117
3	173
3	227
3	259
3	261
3	280
3	298
3	316
3	317
3	328
3	363
3	381
3	461
3	526
3	538
3	557
3	574
3	634
3	651
3	678
3	747
3	789
3	808
3	823
3	842
3	848
3	856
3	866
3	953
3	964
3	1081
3	1157
3	1185
3	1302
3	1385
3	1409
3	1470
3	1618
3	1670
3	1710
3	1772
3	1940
3	1985
3	2027
3	2044
3	2071
3	2115
3	2176
3	2343
3	2373
3	2388
3	2424
3	2484
3	2564
3	2625
3	2664
3	2719
3	2743
3	2823
3	2839
3	2840
3	2939
3	3080
3	3095
3	3212
3	3242
3	3299
3	3502
3	3576
3	3589
3	3630
3	3737
3	4052
3	4057
3	4062
3	4123
3	4158
3	4285
3	4582
3	4672
3	4760
3	4786
3	4803
3	4810
3	4952
4	16
4	17
4	18
4	19
4	21
4	22
4	23
4	25
4	29
4	34
4	41
4	54
4	56
4	59
4	73
4	78
4	79
4	82
4	102
4	112
4	133
4	144
4	160
4	172
4	183
4	184
4	240
4	248
4	259
4	284
4	369
4	433
4	481
4	579
4	615
4	625
4	696
4	699
4	771
4	791
4	830
4	970
4	1047
4	1076
4	1182
4	1229
4	1230
4	1257
4	1277
4	1317
4	1351
4	1384
4	1386
4	1442
4	1507
4	1550
4	1694
4	1918
4	1980
4	1999
4	2016
4	2029
4	2082
4	2174
4	2272
4	2323
4	2385
4	2395
4	2408
4	2459
4	2491
4	2553
4	2744
4	2911
4	2913
4	3013
4	3098
4	3106
4	3221
4	3223
4	3244
4	3405
4	3462
4	3554
4	3590
4	3649
4	3685
4	3876
4	4292
4	4332
4	4355
4	4453
4	4521
4	4532
4	4650
4	4672
4	4737
4	4801
4	4923
5	16
5	17
5	18
5	19
5	23
5	25
5	32
5	44
5	48
5	52
5	53
5	57
5	67
5	72
5	74
5	87
5	92
5	96
5	101
5	102
5	103
5	116
5	127
5	129
5	133
5	134
5	138
5	141
5	142
5	143
5	157
5	163
5	185
5	232
5	254
5	258
5	275
5	328
5	331
5	336
5	337
5	341
5	343
5	365
5	371
5	405
5	424
5	476
5	487
5	500
5	521
5	525
5	553
5	583
5	599
5	605
5	613
5	624
5	641
5	647
5	671
5	674
5	681
5	716
5	725
5	759
5	770
5	773
5	775
5	792
5	802
5	884
5	892
5	950
5	959
5	1005
5	1010
5	1020
5	1039
5	1045
5	1080
5	1086
5	1107
5	1177
5	1217
5	1235
5	1247
5	1266
5	1282
5	1305
5	1335
5	1379
5	1388
5	1397
5	1400
5	1410
5	1431
5	1444
5	1505
5	1519
5	1550
5	1563
5	1625
5	1627
5	1661
5	1662
5	1700
5	1767
5	1784
5	1802
5	1815
5	1825
5	1851
5	1857
5	1869
5	1909
5	1910
5	1925
5	1948
5	1987
5	1993
5	1995
5	2053
5	2081
5	2082
5	2150
5	2226
5	2232
5	2384
5	2439
5	2456
5	2643
5	2669
5	2672
5	2755
5	2803
5	2833
5	2856
5	2911
5	2912
5	3006
5	3044
5	3220
5	3266
5	3286
5	3398
5	3434
5	3469
5	3487
5	3542
5	3580
5	3698
5	3709
5	3760
5	3821
5	3872
5	3951
5	3962
5	3969
5	3973
5	3981
5	4037
5	4044
5	4059
5	4080
5	4083
5	4099
5	4106
5	4228
5	4275
5	4287
5	4327
5	4366
5	4379
5	4420
5	4530
5	4659
5	4664
5	4676
5	4846
5	4877
5	4887
6	16
6	18
6	19
6	20
6	21
6	22
6	23
6	25
6	26
6	27
6	28
6	29
6	32
6	36
6	38
6	39
6	41
6	42
6	45
6	46
6	49
6	51
6	52
6	53
6	55
6	57
6	61
6	62
6	66
6	67
6	70
6	71
6	75
6	78
6	81
6	82
6	84
6	88
6	91
6	92
6	95
6	103
6	104
6	106
6	112
6	130
6	136
6	138
6	145
6	146
6	147
6	153
6	177
6	183
6	192
6	197
6	199
6	200
6	211
6	214
6	216
6	222
6	236
6	243
6	245
6	258
6	264
6	296
6	297
6	309
6	323
6	326
6	330
6	353
6	362
6	367
6	369
6	385
6	387
6	394
6	426
6	427
6	433
6	451
6	459
6	470
6	471
6	477
6	485
6	509
6	522
6	530
6	547
6	552
6	559
6	610
6	611
6	618
6	625
6	630
6	631
6	637
6	648
6	664
6	669
6	675
6	678
6	684
6	691
6	704
6	721
6	723
6	757
6	758
6	766
6	788
6	791
6	822
6	844
6	862
6	865
6	870
6	907
6	911
6	977
6	982
6	990
6	993
6	1010
6	1013
6	1025
6	1031
6	1053
6	1084
6	1125
6	1141
6	1148
6	1160
6	1172
6	1196
6	1201
6	1215
6	1230
6	1233
6	1236
6	1275
6	1280
6	1284
6	1324
6	1377
6	1475
6	1481
6	1493
6	1505
6	1512
6	1521
6	1532
6	1557
6	1562
6	1564
6	1565
6	1618
6	1626
6	1635
6	1638
6	1639
6	1644
6	1660
6	1662
6	1714
6	1720
6	1731
6	1741
6	1788
6	1792
6	1796
6	1806
6	1817
6	1840
6	1851
6	1863
6	1888
6	1900
6	1911
6	1914
6	1942
6	1951
6	2005
6	2008
6	2017
6	2031
6	2052
6	2058
6	2103
6	2105
6	2152
6	2154
6	2165
6	2182
6	2194
6	2201
6	2267
6	2276
6	2291
6	2294
6	2312
6	2329
6	2332
6	2350
6	2358
6	2380
6	2383
6	2422
6	2438
6	2468
6	2489
6	2492
6	2505
6	2538
6	2546
6	2590
6	2655
6	2683
6	2782
6	2804
6	2805
6	2807
6	2814
6	2889
6	2906
6	2932
6	2933
6	2945
6	2958
6	2975
6	2979
6	3008
6	3016
6	3021
6	3024
6	3028
6	3078
6	3089
6	3170
6	3191
6	3192
6	3212
6	3223
6	3273
6	3281
6	3300
6	3314
6	3317
6	3358
6	3361
6	3401
6	3416
6	3441
6	3442
6	3462
6	3487
6	3515
6	3517
6	3545
6	3548
6	3566
6	3598
6	3604
6	3605
6	3618
6	3642
6	3721
6	3722
6	3747
6	3751
6	3767
6	3776
6	3777
6	3828
6	3834
6	3853
6	3874
6	3899
6	3907
6	3919
6	3923
6	3928
6	3935
6	4000
6	4042
6	4062
6	4109
6	4110
6	4122
6	4156
6	4173
6	4203
6	4204
6	4278
6	4297
6	4316
6	4337
6	4397
6	4421
6	4488
6	4542
6	4609
6	4637
6	4641
6	4660
6	4717
6	4758
6	4769
6	4779
6	4806
6	4831
6	4877
6	4903
6	4907
6	4911
6	4928
6	4930
7	16
7	17
7	18
7	19
7	20
7	21
7	22
7	23
7	26
7	27
7	29
7	35
7	37
7	40
7	43
7	62
7	72
7	73
7	76
7	79
7	80
7	81
7	87
7	92
7	94
7	95
7	96
7	100
7	101
7	103
7	109
7	110
7	115
7	119
7	137
7	139
7	140
7	146
7	153
7	166
7	168
7	170
7	172
7	186
7	194
7	199
7	211
7	212
7	215
7	220
7	222
7	230
7	232
7	243
7	250
7	265
7	287
7	304
7	324
7	329
7	363
7	374
7	391
7	398
7	415
7	423
7	430
7	475
7	490
7	492
7	494
7	504
7	516
7	521
7	549
7	552
7	600
7	603
7	612
7	614
7	629
7	655
7	656
7	666
7	672
7	687
7	697
7	716
7	785
7	812
7	819
7	820
7	822
7	843
7	844
7	850
7	851
7	852
7	863
7	891
7	911
7	949
7	955
7	967
7	969
7	972
7	982
7	1037
7	1077
7	1093
7	1102
7	1202
7	1203
7	1219
7	1234
7	1248
7	1255
7	1269
7	1275
7	1281
7	1307
7	1316
7	1379
7	1408
7	1431
7	1433
7	1446
7	1475
7	1511
7	1517
7	1560
7	1603
7	1612
7	1626
7	1630
7	1653
7	1684
7	1701
7	1708
7	1724
7	1734
7	1735
7	1849
7	1874
7	1898
7	1914
7	1960
7	2018
7	2079
7	2094
7	2107
7	2118
7	2156
7	2158
7	2226
7	2241
7	2242
7	2245
7	2250
7	2277
7	2386
7	2402
7	2410
7	2431
7	2437
7	2438
7	2466
7	2468
7	2507
7	2515
7	2538
7	2559
7	2562
7	2583
7	2608
7	2622
7	2634
7	2654
7	2676
7	2714
7	2768
7	2773
7	2809
7	2829
7	2864
7	2878
7	2945
7	2998
7	3001
7	3007
7	3029
7	3037
7	3093
7	3107
7	3108
7	3140
7	3181
7	3245
7	3330
7	3356
7	3367
7	3383
7	3416
7	3457
7	3531
7	3551
7	3631
7	3687
7	3705
7	3716
7	3724
7	3756
7	3777
7	3845
7	3957
7	4029
7	4120
7	4209
7	4222
7	4270
7	4287
7	4320
7	4335
7	4340
7	4414
7	4417
7	4446
7	4473
7	4650
7	4685
7	4740
7	4748
7	4756
7	4793
8	16
8	17
8	19
8	25
8	26
8	28
8	40
8	41
8	53
8	56
8	58
8	59
8	82
8	84
8	85
8	102
8	103
8	105
8	107
8	108
8	109
8	116
8	119
8	144
8	146
8	157
8	164
8	206
8	213
8	216
8	219
8	222
8	234
8	242
8	276
8	288
8	294
8	297
8	329
8	331
8	338
8	339
8	356
8	372
8	402
8	432
8	489
8	490
8	491
8	513
8	539
8	594
8	598
8	629
8	651
8	681
8	699
8	718
8	724
8	764
8	814
8	818
8	823
8	835
8	1003
8	1040
8	1074
8	1126
8	1162
8	1165
8	1169
8	1210
8	1231
8	1240
8	1255
8	1272
8	1290
8	1302
8	1321
8	1362
8	1427
8	1504
8	1534
8	1536
8	1579
8	1610
8	1707
8	1713
8	1728
8	1741
8	1806
8	1952
8	2000
8	2013
8	2117
8	2120
8	2137
8	2178
8	2211
8	2218
8	2271
8	2396
8	2429
8	2436
8	2462
8	2501
8	2540
8	2553
8	2557
8	2601
8	2631
8	2656
8	2683
8	2830
8	2862
8	2899
8	2900
8	3022
8	3047
8	3084
8	3153
8	3189
8	3443
8	3484
8	3493
8	3515
8	3545
8	3555
8	3668
8	3815
8	3899
8	3910
8	3923
8	4117
8	4208
8	4231
8	4548
8	4567
8	4587
8	4596
8	4760
8	4837
8	4866
8	4869
8	4888
9	16
9	17
9	19
9	20
9	21
9	26
9	27
9	29
9	30
9	31
9	34
9	38
9	41
9	44
9	52
9	57
9	61
9	66
9	75
9	83
9	89
9	93
9	95
9	108
9	114
9	117
9	126
9	132
9	137
9	152
9	186
9	193
9	282
9	295
9	316
9	346
9	358
9	376
9	396
9	398
9	412
9	441
9	448
9	470
9	497
9	503
9	551
9	558
9	574
9	592
9	596
9	636
9	644
9	646
9	651
9	673
9	682
9	771
9	789
9	805
9	823
9	833
9	865
9	868
9	896
9	912
9	940
9	943
9	950
9	964
9	1000
9	1077
9	1087
9	1121
9	1189
9	1201
9	1237
9	1332
9	1482
9	1487
9	1508
9	1510
9	1656
9	1686
9	1708
9	1799
9	1869
9	1950
9	2030
9	2045
9	2066
9	2197
9	2239
9	2303
9	2333
9	2342
9	2397
9	2547
9	2553
9	2585
9	2644
9	2682
9	2723
9	2753
9	2827
9	2847
9	2897
9	2933
9	2937
9	3030
9	3061
9	3140
9	3178
9	3225
9	3285
9	3359
9	3415
9	3440
9	3519
9	3523
9	3525
9	3551
9	3572
9	3680
9	3683
9	3750
9	3764
9	3837
9	3874
9	3920
9	3960
9	3965
9	3991
9	4015
9	4028
9	4121
9	4123
9	4235
9	4309
9	4345
9	4447
9	4503
9	4642
9	4665
9	4689
9	4764
9	4821
9	4868
9	4889
10	16
10	17
10	18
10	19
10	20
10	22
10	24
10	27
10	28
10	32
10	33
10	37
10	40
10	44
10	45
10	49
10	50
10	52
10	61
10	64
10	70
10	77
10	79
10	91
10	96
10	115
10	133
10	140
10	144
10	148
10	149
10	155
10	164
10	165
10	167
10	169
10	177
10	181
10	204
10	205
10	221
10	242
10	243
10	276
10	278
10	285
10	305
10	317
10	318
10	331
10	350
10	367
10	387
10	427
10	441
10	443
10	455
10	460
10	461
10	469
10	508
10	535
10	547
10	559
10	576
10	583
10	620
10	624
10	628
10	629
10	666
10	675
10	711
10	742
10	744
10	764
10	766
10	807
10	811
10	834
10	853
10	864
10	872
10	892
10	927
10	946
10	1012
10	1087
10	1114
10	1188
10	1194
10	1214
10	1270
10	1299
10	1311
10	1374
10	1392
10	1408
10	1420
10	1488
10	1559
10	1568
10	1582
10	1601
10	1617
10	1633
10	1691
10	1722
10	1725
10	1743
10	1753
10	1757
10	1802
10	1826
10	1846
10	1859
10	1946
10	1986
10	2019
10	2064
10	2125
10	2200
10	2209
10	2214
10	2252
10	2258
10	2298
10	2337
10	2450
10	2470
10	2492
10	2502
10	2559
10	2565
10	2603
10	2634
10	2636
10	2668
10	2741
10	2790
10	2824
10	2825
10	2884
10	2897
10	2926
10	2927
10	2939
10	3018
10	3044
10	3050
10	3089
10	3151
10	3211
10	3243
10	3280
10	3313
10	3341
10	3345
10	3398
10	3414
10	3541
10	3587
10	3688
10	3760
10	3835
10	3863
10	3911
10	3913
10	3914
10	3936
10	3941
10	4058
10	4099
10	4124
10	4168
10	4197
10	4214
10	4240
10	4332
10	4379
10	4387
10	4391
10	4421
10	4729
10	4735
10	4808
10	4894
10	4899
10	4918
11	16
11	17
11	18
11	19
11	20
11	23
11	24
11	25
11	26
11	29
11	32
11	36
11	44
11	45
11	53
11	55
11	72
11	93
11	109
11	126
11	158
11	167
11	176
11	182
11	218
11	219
11	221
11	253
11	276
11	286
11	303
11	309
11	325
11	378
11	383
11	403
11	432
11	436
11	504
11	539
11	578
11	638
11	643
11	674
11	758
11	784
11	796
11	821
11	986
11	999
11	1019
11	1228
11	1259
11	1309
11	1314
11	1325
11	1331
11	1335
11	1385
11	1562
11	1582
11	1606
11	1633
11	1688
11	1690
11	1725
11	1732
11	1757
11	1776
11	1864
11	1917
11	1980
11	2017
11	2021
11	2029
11	2036
11	2042
11	2043
11	2184
11	2359
11	2464
11	2525
11	2532
11	2546
11	2576
11	2656
11	2680
11	2705
11	2824
11	2831
11	2951
11	2966
11	3017
11	3031
11	3039
11	3105
11	3136
11	3171
11	3265
11	3325
11	3591
11	3600
11	3691
11	3751
11	3802
11	3848
11	3910
11	4051
11	4052
11	4131
11	4163
11	4202
11	4388
11	4682
11	4709
11	4730
11	4786
12	16
12	17
12	18
12	19
12	20
12	25
12	28
12	33
12	34
12	38
12	43
12	45
12	46
12	48
12	51
12	53
12	55
12	57
12	88
12	100
12	117
12	125
12	132
12	137
12	168
12	185
12	259
12	302
12	368
12	437
12	482
12	515
12	528
12	556
12	575
12	639
12	676
12	713
12	721
12	762
12	834
12	855
12	890
12	921
12	1081
12	1197
12	1287
12	1341
12	1486
12	1621
12	1646
12	1689
12	1705
12	1750
12	1790
12	1798
12	1870
12	1965
12	1966
12	2448
12	2475
12	2492
12	2860
12	3142
12	3184
12	3261
12	3353
12	3556
12	3723
12	3727
12	3897
12	3915
12	3967
12	4102
12	4271
12	4290
12	4407
12	4418
12	4603
12	4713
13	16
13	17
13	18
13	20
13	21
13	22
13	23
13	34
13	43
13	48
13	53
13	61
13	77
13	99
13	147
13	148
13	156
13	184
13	185
13	217
13	226
13	230
13	232
13	234
13	239
13	247
13	253
13	308
13	311
13	319
13	353
13	360
13	384
13	434
13	467
13	470
13	484
13	541
13	582
13	594
13	652
13	668
13	740
13	754
13	768
13	774
13	799
13	942
13	986
13	1062
13	1105
13	1151
13	1203
13	1213
13	1311
13	1356
13	1372
13	1411
13	1430
13	1495
13	1511
13	1655
13	1683
13	1779
13	1960
13	1995
13	2010
13	2066
13	2165
13	2234
13	2313
13	2387
13	2457
13	2469
13	2496
13	2623
13	2662
13	2756
13	2782
13	2839
13	2916
13	2981
13	3000
13	3063
13	3163
13	3381
13	3395
13	3526
13	3621
13	3633
13	3641
13	3732
13	3863
13	3895
13	3916
13	4143
13	4325
13	4389
13	4394
13	4437
13	4468
13	4527
13	4608
13	4656
13	4806
13	4952
13	4995
14	16
14	17
14	18
14	19
14	20
14	22
14	24
14	25
14	28
14	33
14	35
14	36
14	47
14	54
14	59
14	65
14	75
14	76
14	82
14	83
14	91
14	101
14	105
14	111
14	114
14	115
14	119
14	123
14	145
14	161
14	166
14	170
14	176
14	187
14	188
14	192
14	201
14	209
14	215
14	240
14	257
14	269
14	273
14	286
14	289
14	300
14	306
14	314
14	319
14	323
14	360
14	385
14	411
14	427
14	439
14	446
14	451
14	477
14	502
14	507
14	515
14	525
14	548
14	551
14	556
14	563
14	597
14	631
14	638
14	642
14	651
14	671
14	673
14	676
14	702
14	703
14	728
14	729
14	741
14	742
14	772
14	830
14	833
14	839
14	872
14	900
14	921
14	990
14	1002
14	1018
14	1027
14	1033
14	1056
14	1058
14	1154
14	1171
14	1188
14	1203
14	1208
14	1237
14	1248
14	1258
14	1262
14	1303
14	1313
14	1354
14	1380
14	1431
14	1477
14	1498
14	1538
14	1626
14	1700
14	1716
14	1718
14	1721
14	1723
14	1750
14	1754
14	1760
14	1768
14	1803
14	1834
14	1839
14	1862
14	1867
14	1875
14	1900
14	1910
14	1937
14	1963
14	1971
14	1995
14	2013
14	2100
14	2128
14	2135
14	2146
14	2167
14	2204
14	2242
14	2264
14	2270
14	2320
14	2333
14	2352
14	2356
14	2400
14	2425
14	2430
14	2431
14	2527
14	2539
14	2611
14	2633
14	2684
14	2816
14	2867
14	2888
14	3062
14	3108
14	3171
14	3198
14	3203
14	3234
14	3239
14	3333
14	3335
14	3336
14	3376
14	3397
14	3403
14	3530
14	3531
14	3624
14	3680
14	3706
14	3949
14	3992
14	4023
14	4088
14	4144
14	4170
14	4240
14	4244
14	4290
14	4335
14	4338
14	4376
14	4489
14	4502
14	4503
14	4555
14	4564
14	4592
14	4612
14	4619
14	4738
14	4741
14	4773
14	4803
14	4914
15	16
15	17
15	18
15	21
15	24
15	25
15	27
15	29
15	32
15	42
15	71
15	76
15	86
15	118
15	176
15	230
15	267
15	299
15	300
15	326
15	343
15	366
15	389
15	401
15	413
15	600
15	663
15	703
15	736
15	780
15	800
15	1054
15	1119
15	1148
15	1167
15	1372
15	1479
15	1521
15	1532
15	1579
15	1646
15	1699
15	1736
15	1762
15	1797
15	1808
15	1872
15	1949
15	1968
15	1990
15	2203
15	2312
15	2465
15	2506
15	2509
15	2545
15	2556
15	2683
15	2713
15	2716
15	2808
15	2992
15	3118
15	3250
15	3368
15	3386
15	3560
15	3858
15	3957
15	3997
15	4218
15	4401
15	4433
15	4481
15	4690
15	4793
15	4848
16	17
16	18
16	19
16	20
16	21
16	22
16	23
16	24
16	25
16	26
16	27
16	28
16	29
16	30
16	31
16	33
16	36
16	37
16	38
16	39
16	40
16	43
16	44
16	45
16	47
16	48
16	50
16	52
16	56
16	61
16	63
16	64
16	65
16	72
16	73
16	78
16	80
16	83
16	84
16	85
16	86
16	89
16	96
16	101
16	107
16	108
16	109
16	113
16	116
16	118
16	120
16	125
16	126
16	127
16	132
16	138
16	140
16	141
16	146
16	149
16	151
16	155
16	157
16	160
16	164
16	173
16	174
16	175
16	176
16	177
16	178
16	185
16	186
16	189
16	195
16	197
16	199
16	213
16	215
16	220
16	221
16	226
16	228
16	234
16	238
16	247
16	252
16	256
16	261
16	262
16	266
16	272
16	283
16	288
16	298
16	301
16	305
16	308
16	324
16	333
16	334
16	341
16	379
16	388
16	401
16	406
16	421
16	423
16	432
16	441
16	443
16	449
16	451
16	455
16	456
16	459
16	466
16	484
16	489
16	494
16	495
16	497
16	498
16	504
16	522
16	529
16	541
16	547
16	564
16	575
16	579
16	584
16	587
16	590
16	591
16	594
16	601
16	603
16	612
16	618
16	635
16	637
16	638
16	653
16	665
16	675
16	682
16	687
16	697
16	700
16	708
16	715
16	716
16	737
16	740
16	749
16	756
16	759
16	764
16	769
16	775
16	776
16	782
16	799
16	810
16	814
16	819
16	827
16	831
16	848
16	850
16	860
16	871
16	884
16	885
16	887
16	923
16	926
16	935
16	951
16	959
16	965
16	966
16	981
16	988
16	989
16	991
16	994
16	1009
16	1012
16	1017
16	1018
16	1023
16	1024
16	1066
16	1078
16	1084
16	1086
16	1098
16	1101
16	1116
16	1125
16	1133
16	1136
16	1148
16	1158
16	1163
16	1164
16	1169
16	1280
16	1285
16	1347
16	1351
16	1361
16	1363
16	1397
16	1405
16	1413
16	1431
16	1438
16	1458
16	1469
16	1479
16	1522
16	1529
16	1559
16	1567
16	1569
16	1607
16	1619
16	1629
16	1640
16	1660
16	1677
16	1683
16	1695
16	1707
16	1731
16	1739
16	1742
16	1747
16	1784
16	1800
16	1885
16	1902
16	1908
16	1911
16	1949
16	1976
16	1981
16	2015
16	2022
16	2053
16	2059
16	2111
16	2148
16	2155
16	2157
16	2193
16	2204
16	2214
16	2216
16	2224
16	2229
16	2240
16	2241
16	2280
16	2283
16	2326
16	2370
16	2386
16	2395
16	2398
16	2400
16	2402
16	2436
16	2449
16	2472
16	2506
16	2525
16	2526
16	2535
16	2536
16	2538
16	2563
16	2567
16	2575
16	2601
16	2649
16	2652
16	2655
16	2684
16	2706
16	2746
16	2807
16	2820
16	2828
16	2830
16	2831
16	2848
16	2867
16	2872
16	2875
16	2884
16	2914
16	2925
16	2926
16	2962
16	3008
16	3033
16	3043
16	3044
16	3072
16	3122
16	3133
16	3177
16	3195
16	3209
16	3213
16	3222
16	3258
16	3272
16	3296
16	3322
16	3331
16	3332
16	3334
16	3347
16	3356
16	3358
16	3382
16	3389
16	3408
16	3421
16	3428
16	3438
16	3439
16	3440
16	3443
16	3510
16	3524
16	3537
16	3574
16	3576
16	3607
16	3617
16	3632
16	3638
16	3671
16	3679
16	3747
16	3763
16	3765
16	3766
16	3792
16	3794
16	3797
16	3800
16	3826
16	3837
16	3844
16	3859
16	3899
16	3913
16	3935
16	4009
16	4015
16	4021
16	4038
16	4060
16	4069
16	4084
16	4134
16	4162
16	4177
16	4182
16	4185
16	4195
16	4236
16	4267
16	4290
16	4309
16	4338
16	4340
16	4370
16	4380
16	4383
16	4393
16	4399
16	4409
16	4449
16	4450
16	4505
16	4517
16	4518
16	4520
16	4534
16	4556
16	4567
16	4607
16	4646
16	4717
16	4741
16	4769
16	4780
16	4811
16	4812
16	4837
16	4847
16	4889
16	4901
16	4935
16	4963
16	4974
16	4978
16	4998
17	18
17	19
17	20
17	21
17	22
17	23
17	24
17	25
17	27
17	28
17	29
17	30
17	31
17	35
17	36
17	37
17	39
17	40
17	41
17	42
17	43
17	44
17	45
17	47
17	51
17	54
17	55
17	60
17	61
17	63
17	66
17	68
17	69
17	74
17	75
17	78
17	85
17	86
17	89
17	92
17	94
17	95
17	98
17	99
17	100
17	102
17	109
17	112
17	115
17	116
17	118
17	121
17	125
17	129
17	134
17	158
17	160
17	161
17	163
17	172
17	173
17	175
17	177
17	178
17	180
17	181
17	182
17	183
17	191
17	194
17	200
17	203
17	204
17	209
17	213
17	216
17	218
17	224
17	227
17	228
17	234
17	258
17	266
17	272
17	275
17	276
17	292
17	294
17	295
17	302
17	308
17	312
17	321
17	326
17	329
17	337
17	343
17	346
17	350
17	393
17	397
17	398
17	405
17	412
17	420
17	422
17	443
17	444
17	453
17	456
17	460
17	470
17	481
17	483
17	489
17	490
17	496
17	499
17	509
17	517
17	534
17	555
17	562
17	602
17	612
17	629
17	641
17	644
17	652
17	663
17	677
17	700
17	718
17	730
17	733
17	734
17	790
17	803
17	823
17	832
17	833
17	837
17	869
17	878
17	883
17	884
17	901
17	910
17	915
17	922
17	926
17	929
17	938
17	947
17	958
17	964
17	986
17	987
17	1001
17	1003
17	1035
17	1048
17	1061
17	1069
17	1082
17	1087
17	1097
17	1110
17	1136
17	1182
17	1189
17	1192
17	1205
17	1210
17	1246
17	1259
17	1283
17	1294
17	1315
17	1321
17	1342
17	1351
17	1396
17	1403
17	1422
17	1428
17	1451
17	1485
17	1488
17	1492
17	1498
17	1500
17	1516
17	1556
17	1561
17	1570
17	1575
17	1588
17	1619
17	1624
17	1628
17	1630
17	1633
17	1650
17	1691
17	1694
17	1719
17	1724
17	1726
17	1731
17	1746
17	1752
17	1785
17	1809
17	1828
17	1829
17	1832
17	1855
17	1859
17	1869
17	1882
17	1891
17	1894
17	1903
17	1909
17	1913
17	1914
17	1952
17	1982
17	2040
17	2042
17	2051
17	2068
17	2078
17	2118
17	2123
17	2161
17	2214
17	2225
17	2238
17	2270
17	2298
17	2302
17	2320
17	2342
17	2352
17	2353
17	2359
17	2366
17	2371
17	2481
17	2485
17	2491
17	2494
17	2542
17	2556
17	2564
17	2566
17	2572
17	2582
17	2590
17	2602
17	2608
17	2653
17	2691
17	2705
17	2713
17	2725
17	2754
17	2763
17	2767
17	2776
17	2784
17	2789
17	2795
17	2820
17	2877
17	2934
17	2957
17	2984
17	2985
17	3014
17	3037
17	3039
17	3044
17	3068
17	3072
17	3074
17	3088
17	3103
17	3111
17	3152
17	3177
17	3185
17	3196
17	3227
17	3240
17	3257
17	3260
17	3266
17	3291
17	3307
17	3320
17	3326
17	3381
17	3391
17	3418
17	3424
17	3454
17	3456
17	3458
17	3491
17	3503
17	3515
17	3543
17	3560
17	3592
17	3611
17	3614
17	3657
17	3704
17	3708
17	3735
17	3859
17	3930
17	3955
17	3973
17	3990
17	4044
17	4071
17	4115
17	4120
17	4126
17	4127
17	4151
17	4210
17	4225
17	4228
17	4320
17	4338
17	4346
17	4418
17	4442
17	4453
17	4454
17	4517
17	4551
17	4559
17	4583
17	4605
17	4620
17	4626
17	4706
17	4758
17	4782
17	4798
17	4839
17	4846
17	4868
17	4871
17	4902
17	4918
17	4967
17	4971
18	19
18	20
18	21
18	22
18	23
18	24
18	26
18	27
18	28
18	29
18	32
18	33
18	34
18	36
18	37
18	38
18	41
18	42
18	43
18	45
18	46
18	49
18	54
18	55
18	56
18	63
18	64
18	69
18	72
18	73
18	78
18	83
18	84
18	85
18	86
18	87
18	90
18	93
18	99
18	113
18	114
18	118
18	120
18	121
18	124
18	127
18	128
18	132
18	137
18	141
18	143
18	147
18	148
18	150
18	156
18	159
18	168
18	178
18	198
18	203
18	211
18	212
18	215
18	218
18	222
18	230
18	231
18	239
18	244
18	252
18	256
18	258
18	267
18	268
18	278
18	283
18	289
18	298
18	299
18	317
18	335
18	338
18	341
18	343
18	349
18	354
18	355
18	365
18	371
18	374
18	375
18	378
18	392
18	393
18	398
18	403
18	410
18	414
18	417
18	420
18	422
18	425
18	442
18	459
18	462
18	463
18	491
18	496
18	498
18	534
18	537
18	543
18	551
18	566
18	569
18	570
18	573
18	574
18	591
18	599
18	618
18	622
18	656
18	673
18	683
18	689
18	698
18	713
18	719
18	751
18	753
18	757
18	774
18	775
18	776
18	801
18	803
18	806
18	807
18	808
18	820
18	822
18	831
18	840
18	886
18	902
18	911
18	913
18	915
18	931
18	944
18	968
18	969
18	971
18	976
18	990
18	992
18	994
18	1000
18	1006
18	1018
18	1031
18	1054
18	1068
18	1073
18	1078
18	1096
18	1097
18	1098
18	1111
18	1120
18	1126
18	1142
18	1146
18	1152
18	1154
18	1172
18	1184
18	1185
18	1189
18	1201
18	1207
18	1209
18	1218
18	1223
18	1252
18	1258
18	1259
18	1264
18	1298
18	1310
18	1315
18	1332
18	1351
18	1354
18	1381
18	1385
18	1391
18	1412
18	1422
18	1436
18	1444
18	1469
18	1488
18	1492
18	1502
18	1507
18	1513
18	1519
18	1544
18	1604
18	1605
18	1608
18	1615
18	1705
18	1761
18	1794
18	1797
18	1831
18	1839
18	1843
18	1860
18	1867
18	1880
18	1904
18	1908
18	1934
18	1939
18	1940
18	1958
18	1977
18	1997
18	2003
18	2037
18	2057
18	2111
18	2113
18	2115
18	2119
18	2141
18	2164
18	2180
18	2199
18	2236
18	2239
18	2247
18	2255
18	2257
18	2265
18	2272
18	2285
18	2293
18	2296
18	2307
18	2309
18	2327
18	2328
18	2339
18	2379
18	2384
18	2423
18	2441
18	2457
18	2474
18	2491
18	2502
18	2520
18	2527
18	2535
18	2555
18	2557
18	2587
18	2604
18	2622
18	2634
18	2638
18	2646
18	2678
18	2682
18	2685
18	2686
18	2703
18	2708
18	2727
18	2731
18	2743
18	2748
18	2760
18	2791
18	2835
18	2862
18	2927
18	2940
18	2951
18	2955
18	2973
18	2983
18	2994
18	3033
18	3065
18	3085
18	3132
18	3134
18	3142
18	3151
18	3158
18	3166
18	3180
18	3194
18	3197
18	3293
18	3295
18	3355
18	3418
18	3455
18	3456
18	3475
18	3496
18	3508
18	3510
18	3548
18	3553
18	3579
18	3601
18	3617
18	3651
18	3666
18	3683
18	3697
18	3707
18	3718
18	3733
18	3740
18	3744
18	3746
18	3753
18	3755
18	3762
18	3800
18	3820
18	3834
18	3840
18	3851
18	3859
18	3914
18	3919
18	3928
18	3957
18	3960
18	3969
18	3981
18	4005
18	4007
18	4028
18	4078
18	4098
18	4103
18	4106
18	4125
18	4128
18	4135
18	4184
18	4234
18	4251
18	4252
18	4253
18	4255
18	4334
18	4363
18	4373
18	4391
18	4402
18	4444
18	4455
18	4458
18	4468
18	4578
18	4582
18	4584
18	4590
18	4609
18	4621
18	4635
18	4666
18	4683
18	4703
18	4710
18	4720
18	4763
18	4764
18	4820
18	4834
18	4842
18	4874
18	4906
18	4911
18	4941
18	4957
19	20
19	21
19	22
19	23
19	24
19	26
19	27
19	28
19	30
19	31
19	32
19	34
19	37
19	38
19	39
19	40
19	41
19	43
19	47
19	48
19	51
19	55
19	58
19	59
19	60
19	66
19	68
19	70
19	71
19	79
19	86
19	95
19	103
19	118
19	122
19	123
19	124
19	126
19	133
19	146
19	147
19	152
19	154
19	161
19	165
19	177
19	178
19	186
19	190
19	208
19	210
19	214
19	222
19	237
19	247
19	253
19	261
19	279
19	285
19	290
19	291
19	299
19	314
19	318
19	319
19	349
19	357
19	359
19	370
19	371
19	377
19	379
19	399
19	405
19	441
19	453
19	466
19	475
19	486
19	491
19	510
19	512
19	513
19	516
19	532
19	548
19	551
19	554
19	577
19	581
19	587
19	589
19	593
19	599
19	609
19	622
19	636
19	640
19	641
19	644
19	646
19	683
19	692
19	708
19	726
19	737
19	741
19	744
19	745
19	763
19	787
19	797
19	804
19	805
19	810
19	811
19	813
19	830
19	873
19	874
19	882
19	884
19	951
19	962
19	982
19	1012
19	1037
19	1045
19	1050
19	1063
19	1064
19	1082
19	1083
19	1100
19	1139
19	1158
19	1163
19	1167
19	1189
19	1204
19	1206
19	1247
19	1256
19	1257
19	1258
19	1268
19	1321
19	1349
19	1366
19	1372
19	1387
19	1395
19	1414
19	1437
19	1463
19	1507
19	1532
19	1546
19	1572
19	1573
19	1594
19	1598
19	1624
19	1668
19	1685
19	1764
19	1772
19	1774
19	1782
19	1791
19	1824
19	1829
19	1842
19	1879
19	1888
19	1903
19	1915
19	1942
19	2048
19	2059
19	2074
19	2076
19	2115
19	2136
19	2144
19	2146
19	2148
19	2153
19	2173
19	2178
19	2207
19	2262
19	2281
19	2306
19	2323
19	2326
19	2334
19	2355
19	2374
19	2382
19	2416
19	2422
19	2434
19	2448
19	2458
19	2459
19	2466
19	2478
19	2494
19	2499
19	2510
19	2538
19	2550
19	2556
19	2579
19	2583
19	2614
19	2642
19	2649
19	2652
19	2655
19	2658
19	2679
19	2703
19	2768
19	2775
19	2789
19	2794
19	2799
19	2823
19	2838
19	2868
19	2878
19	2906
19	2914
19	2921
19	2930
19	2968
19	2969
19	3007
19	3015
19	3033
19	3034
19	3035
19	3062
19	3063
19	3098
19	3124
19	3146
19	3158
19	3159
19	3182
19	3183
19	3331
19	3335
19	3338
19	3369
19	3381
19	3383
19	3384
19	3471
19	3510
19	3548
19	3568
19	3573
19	3602
19	3667
19	3668
19	3694
19	3700
19	3705
19	3753
19	3758
19	3774
19	3780
19	3784
19	3805
19	3820
19	3824
19	3834
19	3851
19	3853
19	3857
19	3867
19	3991
19	4024
19	4043
19	4063
19	4089
19	4115
19	4119
19	4198
19	4210
19	4250
19	4262
19	4285
19	4299
19	4321
19	4357
19	4419
19	4420
19	4423
19	4432
19	4526
19	4577
19	4578
19	4610
19	4620
19	4665
19	4680
19	4699
19	4705
19	4726
19	4755
19	4766
19	4797
19	4871
20	21
20	22
20	23
20	24
20	26
20	27
20	28
20	29
20	31
20	32
20	33
20	35
20	36
20	43
20	44
20	46
20	47
20	49
20	50
20	51
20	52
20	56
20	57
20	59
20	63
20	66
20	67
20	79
20	88
20	89
20	94
20	98
20	102
20	103
20	104
20	110
20	111
20	118
20	121
20	125
20	129
20	131
20	134
20	136
20	137
20	143
20	152
20	160
20	162
20	164
20	168
20	183
20	188
20	204
20	205
20	212
20	217
20	218
20	231
20	243
20	253
20	262
20	277
20	280
20	292
20	294
20	315
20	332
20	333
20	340
20	345
20	348
20	350
20	354
20	366
20	370
20	390
20	392
20	415
20	438
20	465
20	468
20	473
20	475
20	479
20	500
20	506
20	511
20	552
20	588
20	593
20	600
20	603
20	618
20	636
20	642
20	653
20	654
20	675
20	686
20	696
20	703
20	720
20	737
20	747
20	757
20	763
20	765
20	781
20	809
20	813
20	816
20	850
20	858
20	874
20	879
20	912
20	918
20	929
20	953
20	972
20	993
20	994
20	1007
20	1031
20	1048
20	1065
20	1069
20	1099
20	1106
20	1119
20	1136
20	1145
20	1174
20	1179
20	1186
20	1187
20	1195
20	1201
20	1203
20	1208
20	1254
20	1255
20	1266
20	1319
20	1327
20	1354
20	1377
20	1383
20	1387
20	1393
20	1402
20	1403
20	1441
20	1449
20	1489
20	1497
20	1528
20	1532
20	1537
20	1544
20	1615
20	1625
20	1635
20	1639
20	1652
20	1654
20	1675
20	1714
20	1717
20	1723
20	1727
20	1741
20	1745
20	1754
20	1763
20	1876
20	1891
20	1896
20	1903
20	1913
20	1916
20	1921
20	1924
20	1978
20	2004
20	2012
20	2013
20	2105
20	2111
20	2123
20	2178
20	2187
20	2236
20	2268
20	2269
20	2274
20	2288
20	2447
20	2449
20	2457
20	2464
20	2467
20	2473
20	2481
20	2490
20	2529
20	2535
20	2579
20	2582
20	2620
20	2628
20	2654
20	2661
20	2662
20	2674
20	2676
20	2693
20	2713
20	2721
20	2727
20	2733
20	2741
20	2785
20	2814
20	2844
20	2878
20	2901
20	2961
20	2985
20	2999
20	3005
20	3030
20	3048
20	3051
20	3100
20	3165
20	3178
20	3209
20	3220
20	3256
20	3271
20	3281
20	3352
20	3374
20	3391
20	3401
20	3402
20	3457
20	3480
20	3485
20	3509
20	3511
20	3520
20	3521
20	3522
20	3524
20	3598
20	3620
20	3621
20	3623
20	3632
20	3633
20	3635
20	3636
20	3638
20	3653
20	3655
20	3661
20	3683
20	3710
20	3714
20	3882
20	3883
20	3954
20	3993
20	3997
20	4013
20	4044
20	4069
20	4104
20	4277
20	4326
20	4339
20	4340
20	4372
20	4375
20	4387
20	4389
20	4472
20	4490
20	4494
20	4505
20	4535
20	4544
20	4555
20	4606
20	4623
20	4704
20	4716
20	4718
20	4733
20	4849
20	4880
20	4938
20	4980
21	22
21	23
21	24
21	25
21	26
21	27
21	30
21	32
21	34
21	36
21	37
21	38
21	39
21	42
21	45
21	47
21	48
21	49
21	54
21	55
21	57
21	58
21	61
21	67
21	69
21	71
21	72
21	73
21	78
21	82
21	84
21	86
21	88
21	91
21	94
21	95
21	97
21	100
21	104
21	107
21	109
21	116
21	122
21	128
21	129
21	132
21	136
21	141
21	143
21	144
21	145
21	162
21	164
21	169
21	182
21	183
21	187
21	188
21	195
21	206
21	207
21	214
21	215
21	234
21	245
21	254
21	256
21	262
21	263
21	272
21	284
21	288
21	292
21	297
21	300
21	304
21	306
21	312
21	313
21	322
21	333
21	334
21	342
21	359
21	369
21	375
21	376
21	404
21	405
21	406
21	411
21	424
21	425
21	441
21	451
21	462
21	463
21	472
21	476
21	477
21	489
21	490
21	491
21	502
21	511
21	521
21	528
21	529
21	531
21	534
21	543
21	545
21	551
21	554
21	561
21	565
21	570
21	587
21	606
21	616
21	643
21	651
21	677
21	687
21	711
21	712
21	715
21	723
21	727
21	751
21	759
21	773
21	776
21	779
21	788
21	793
21	811
21	813
21	826
21	831
21	857
21	868
21	878
21	880
21	886
21	891
21	931
21	979
21	1001
21	1005
21	1042
21	1069
21	1079
21	1091
21	1121
21	1135
21	1141
21	1161
21	1171
21	1220
21	1225
21	1228
21	1238
21	1251
21	1279
21	1281
21	1282
21	1301
21	1317
21	1331
21	1343
21	1365
21	1369
21	1408
21	1411
21	1480
21	1499
21	1507
21	1517
21	1535
21	1540
21	1572
21	1574
21	1594
21	1595
21	1597
21	1604
21	1627
21	1634
21	1643
21	1657
21	1666
21	1667
21	1673
21	1676
21	1684
21	1698
21	1712
21	1741
21	1751
21	1767
21	1773
21	1776
21	1786
21	1794
21	1807
21	1809
21	1825
21	1838
21	1913
21	1924
21	1958
21	1982
21	1993
21	2012
21	2034
21	2053
21	2086
21	2103
21	2119
21	2123
21	2141
21	2152
21	2170
21	2174
21	2205
21	2250
21	2268
21	2283
21	2300
21	2313
21	2366
21	2368
21	2381
21	2420
21	2435
21	2436
21	2438
21	2469
21	2488
21	2496
21	2506
21	2565
21	2576
21	2588
21	2607
21	2610
21	2614
21	2630
21	2634
21	2640
21	2724
21	2733
21	2781
21	2786
21	2804
21	2827
21	2828
21	2875
21	2903
21	2916
21	2920
21	2928
21	2929
21	2941
21	2947
21	2948
21	2965
21	2979
21	3060
21	3075
21	3076
21	3092
21	3111
21	3114
21	3116
21	3132
21	3167
21	3171
21	3185
21	3232
21	3237
21	3253
21	3281
21	3348
21	3369
21	3383
21	3402
21	3416
21	3434
21	3438
21	3440
21	3471
21	3476
21	3505
21	3507
21	3514
21	3516
21	3528
21	3583
21	3599
21	3602
21	3652
21	3682
21	3685
21	3718
21	3730
21	3743
21	3745
21	3778
21	3782
21	3804
21	3840
21	3915
21	3939
21	3953
21	3961
21	3963
21	4020
21	4072
21	4083
21	4086
21	4120
21	4176
21	4204
21	4221
21	4239
21	4254
21	4277
21	4298
21	4320
21	4397
21	4410
21	4411
21	4417
21	4435
21	4469
21	4476
21	4502
21	4513
21	4514
21	4553
21	4597
21	4616
21	4639
21	4663
21	4669
21	4682
21	4685
21	4708
21	4715
21	4747
21	4770
21	4791
21	4880
21	4882
21	4892
21	4915
21	4976
21	4989
21	4991
22	23
22	24
22	26
22	27
22	28
22	30
22	32
22	34
22	36
22	39
22	40
22	42
22	44
22	45
22	51
22	55
22	59
22	60
22	62
22	63
22	65
22	74
22	81
22	90
22	102
22	103
22	106
22	120
22	125
22	132
22	134
22	156
22	158
22	198
22	208
22	216
22	220
22	226
22	240
22	241
22	249
22	251
22	268
22	270
22	272
22	274
22	278
22	279
22	281
22	291
22	292
22	295
22	301
22	319
22	340
22	349
22	362
22	385
22	399
22	402
22	403
22	405
22	436
22	438
22	439
22	451
22	458
22	468
22	471
22	479
22	491
22	492
22	495
22	508
22	510
22	528
22	537
22	548
22	555
22	575
22	580
22	582
22	603
22	605
22	617
22	619
22	633
22	636
22	637
22	639
22	643
22	650
22	668
22	700
22	715
22	722
22	723
22	732
22	733
22	736
22	738
22	757
22	760
22	763
22	784
22	824
22	838
22	852
22	855
22	867
22	894
22	898
22	901
22	923
22	939
22	941
22	944
22	997
22	1003
22	1024
22	1033
22	1036
22	1039
22	1054
22	1066
22	1077
22	1086
22	1097
22	1116
22	1118
22	1125
22	1154
22	1187
22	1193
22	1206
22	1237
22	1309
22	1312
22	1334
22	1357
22	1394
22	1425
22	1446
22	1458
22	1467
22	1473
22	1495
22	1508
22	1512
22	1592
22	1612
22	1627
22	1633
22	1667
22	1669
22	1675
22	1694
22	1709
22	1725
22	1730
22	1764
22	1790
22	1798
22	1807
22	1814
22	1827
22	1830
22	1865
22	1876
22	1879
22	1881
22	1884
22	1961
22	1963
22	1965
22	1966
22	1971
22	2054
22	2067
22	2087
22	2124
22	2185
22	2187
22	2263
22	2301
22	2343
22	2362
22	2367
22	2407
22	2436
22	2459
22	2469
22	2485
22	2492
22	2496
22	2517
22	2563
22	2572
22	2599
22	2600
22	2607
22	2617
22	2645
22	2659
22	2670
22	2675
22	2686
22	2687
22	2690
22	2696
22	2732
22	2749
22	2767
22	2802
22	2852
22	2863
22	2889
22	2926
22	2928
22	3006
22	3011
22	3019
22	3040
22	3053
22	3070
22	3087
22	3128
22	3193
22	3262
22	3291
22	3333
22	3361
22	3370
22	3409
22	3463
22	3493
22	3530
22	3572
22	3586
22	3588
22	3600
22	3616
22	3657
22	3674
22	3697
22	3700
22	3701
22	3721
22	3791
22	3800
22	3814
22	3854
22	3882
22	3901
22	3941
22	4010
22	4022
22	4071
22	4111
22	4177
22	4192
22	4229
22	4368
22	4385
22	4467
22	4478
22	4485
22	4497
22	4538
22	4582
22	4653
22	4669
22	4690
22	4696
22	4708
22	4715
22	4868
22	4874
22	4895
22	4947
22	4974
23	25
23	26
23	27
23	28
23	31
23	33
23	38
23	39
23	41
23	43
23	44
23	46
23	54
23	64
23	69
23	74
23	79
23	84
23	88
23	89
23	90
23	91
23	106
23	108
23	116
23	121
23	130
23	132
23	144
23	145
23	152
23	165
23	167
23	168
23	171
23	175
23	179
23	181
23	184
23	188
23	204
23	205
23	206
23	207
23	209
23	218
23	234
23	235
23	240
23	246
23	252
23	253
23	257
23	262
23	268
23	269
23	271
23	272
23	277
23	282
23	294
23	297
23	307
23	317
23	319
23	329
23	336
23	347
23	359
23	365
23	366
23	373
23	382
23	390
23	391
23	392
23	403
23	406
23	432
23	445
23	456
23	458
23	459
23	462
23	472
23	481
23	489
23	495
23	511
23	517
23	522
23	549
23	562
23	567
23	580
23	584
23	598
23	605
23	615
23	617
23	635
23	636
23	647
23	649
23	670
23	671
23	698
23	704
23	742
23	788
23	798
23	805
23	811
23	860
23	866
23	875
23	882
23	885
23	888
23	892
23	910
23	915
23	919
23	925
23	927
23	937
23	950
23	966
23	973
23	975
23	979
23	980
23	983
23	985
23	987
23	989
23	1005
23	1029
23	1038
23	1053
23	1059
23	1072
23	1099
23	1113
23	1123
23	1187
23	1193
23	1200
23	1201
23	1219
23	1269
23	1272
23	1300
23	1316
23	1319
23	1335
23	1363
23	1401
23	1433
23	1444
23	1448
23	1461
23	1473
23	1534
23	1548
23	1580
23	1593
23	1598
23	1606
23	1624
23	1625
23	1676
23	1690
23	1695
23	1698
23	1818
23	1848
23	1857
23	1884
23	1887
23	1894
23	1922
23	1933
23	1962
23	1974
23	2077
23	2082
23	2086
23	2098
23	2102
23	2109
23	2116
23	2117
23	2118
23	2127
23	2132
23	2147
23	2202
23	2216
23	2218
23	2238
23	2259
23	2264
23	2294
23	2298
23	2325
23	2333
23	2343
23	2353
23	2417
23	2446
23	2453
23	2466
23	2467
23	2471
23	2515
23	2537
23	2539
23	2546
23	2616
23	2620
23	2627
23	2670
23	2684
23	2708
23	2715
23	2731
23	2755
23	2796
23	2813
23	2824
23	2842
23	2844
23	2853
23	2895
23	2920
23	2936
23	3027
23	3058
23	3060
23	3077
23	3195
23	3197
23	3215
23	3336
23	3351
23	3359
23	3370
23	3384
23	3385
23	3390
23	3400
23	3406
23	3467
23	3501
23	3509
23	3534
23	3536
23	3549
23	3567
23	3569
23	3573
23	3605
23	3627
23	3641
23	3649
23	3662
23	3701
23	3743
23	3774
23	3783
23	3790
23	3807
23	3822
23	3835
23	3856
23	3872
23	3892
23	3901
23	3919
23	3921
23	3934
23	3948
23	3952
23	3967
23	3979
23	3995
23	4005
23	4019
23	4031
23	4050
23	4116
23	4158
23	4235
23	4254
23	4327
23	4335
23	4349
23	4376
23	4444
23	4453
23	4458
23	4469
23	4472
23	4492
23	4504
23	4544
23	4563
23	4665
23	4686
23	4708
23	4744
23	4763
23	4807
23	4811
23	4817
23	4866
23	4883
23	4929
24	25
24	26
24	29
24	30
24	33
24	35
24	36
24	39
24	40
24	47
24	50
24	57
24	59
24	61
24	66
24	69
24	72
24	73
24	77
24	80
24	81
24	83
24	90
24	94
24	98
24	100
24	103
24	109
24	110
24	113
24	127
24	133
24	136
24	139
24	140
24	148
24	155
24	157
24	166
24	176
24	179
24	180
24	182
24	201
24	214
24	217
24	218
24	219
24	222
24	229
24	230
24	246
24	279
24	287
24	292
24	295
24	307
24	331
24	334
24	337
24	344
24	351
24	358
24	376
24	386
24	399
24	400
24	420
24	425
24	434
24	449
24	472
24	477
24	485
24	487
24	509
24	513
24	524
24	529
24	532
24	540
24	542
24	552
24	553
24	566
24	567
24	573
24	574
24	588
24	697
24	714
24	718
24	724
24	737
24	738
24	748
24	754
24	768
24	775
24	778
24	821
24	835
24	841
24	855
24	866
24	867
24	874
24	877
24	894
24	897
24	899
24	927
24	929
24	948
24	949
24	972
24	981
24	989
24	1044
24	1050
24	1072
24	1101
24	1108
24	1113
24	1119
24	1157
24	1166
24	1170
24	1195
24	1199
24	1208
24	1231
24	1296
24	1297
24	1315
24	1318
24	1322
24	1332
24	1349
24	1388
24	1389
24	1400
24	1426
24	1444
24	1461
24	1499
24	1552
24	1560
24	1568
24	1569
24	1639
24	1648
24	1649
24	1657
24	1664
24	1723
24	1768
24	1772
24	1819
24	1820
24	1864
24	1881
24	1893
24	1896
24	1923
24	1927
24	1932
24	1944
24	2022
24	2100
24	2123
24	2153
24	2179
24	2180
24	2192
24	2288
24	2302
24	2324
24	2345
24	2346
24	2402
24	2419
24	2442
24	2456
24	2472
24	2482
24	2503
24	2508
24	2512
24	2515
24	2550
24	2589
24	2624
24	2671
24	2674
24	2690
24	2698
24	2704
24	2760
24	2796
24	2799
24	2823
24	2836
24	2837
24	2849
24	2921
24	2973
24	2977
24	2987
24	3024
24	3037
24	3042
24	3085
24	3094
24	3099
24	3139
24	3147
24	3148
24	3177
24	3189
24	3193
24	3196
24	3199
24	3210
24	3236
24	3260
24	3288
24	3306
24	3382
24	3409
24	3427
24	3504
24	3554
24	3585
24	3590
24	3612
24	3634
24	3675
24	3696
24	3719
24	3808
24	3898
24	3959
24	3963
24	3968
24	3977
24	4056
24	4091
24	4120
24	4156
24	4199
24	4217
24	4245
24	4273
24	4284
24	4286
24	4320
24	4342
24	4351
24	4425
24	4447
24	4461
24	4572
24	4580
24	4597
24	4633
24	4791
24	4803
24	4885
24	4908
24	4941
24	4951
24	4969
25	26
25	28
25	30
25	31
25	33
25	34
25	35
25	36
25	38
25	39
25	40
25	42
25	43
25	46
25	47
25	56
25	57
25	58
25	59
25	61
25	62
25	65
25	68
25	70
25	74
25	93
25	94
25	98
25	99
25	100
25	109
25	110
25	111
25	115
25	123
25	124
25	126
25	128
25	130
25	135
25	136
25	138
25	146
25	152
25	155
25	157
25	165
25	169
25	172
25	179
25	181
25	196
25	197
25	204
25	215
25	221
25	223
25	224
25	238
25	242
25	246
25	250
25	251
25	252
25	255
25	257
25	275
25	276
25	277
25	280
25	281
25	282
25	284
25	287
25	291
25	293
25	298
25	301
25	310
25	311
25	324
25	326
25	346
25	348
25	349
25	358
25	362
25	364
25	374
25	380
25	382
25	383
25	389
25	393
25	396
25	407
25	409
25	413
25	417
25	449
25	451
25	454
25	492
25	497
25	510
25	520
25	536
25	541
25	554
25	571
25	573
25	578
25	586
25	596
25	604
25	614
25	648
25	652
25	653
25	664
25	665
25	666
25	677
25	685
25	686
25	687
25	693
25	698
25	699
25	722
25	727
25	729
25	747
25	752
25	767
25	785
25	794
25	795
25	796
25	798
25	801
25	814
25	815
25	818
25	819
25	820
25	841
25	858
25	869
25	871
25	876
25	879
25	884
25	887
25	897
25	912
25	915
25	916
25	938
25	951
25	953
25	955
25	966
25	973
25	991
25	1016
25	1021
25	1028
25	1068
25	1069
25	1085
25	1088
25	1097
25	1099
25	1100
25	1102
25	1116
25	1117
25	1127
25	1131
25	1134
25	1139
25	1149
25	1151
25	1173
25	1177
25	1181
25	1187
25	1188
25	1226
25	1249
25	1262
25	1306
25	1320
25	1324
25	1345
25	1346
25	1349
25	1356
25	1372
25	1375
25	1389
25	1414
25	1426
25	1454
25	1458
25	1485
25	1501
25	1504
25	1517
25	1519
25	1527
25	1556
25	1563
25	1573
25	1579
25	1587
25	1606
25	1622
25	1630
25	1632
25	1634
25	1636
25	1662
25	1672
25	1675
25	1680
25	1681
25	1703
25	1723
25	1726
25	1748
25	1771
25	1792
25	1802
25	1807
25	1813
25	1815
25	1830
25	1842
25	1870
25	1944
25	1986
25	2033
25	2045
25	2065
25	2071
25	2111
25	2115
25	2126
25	2150
25	2185
25	2190
25	2231
25	2237
25	2292
25	2306
25	2312
25	2338
25	2360
25	2380
25	2388
25	2456
25	2459
25	2482
25	2490
25	2499
25	2516
25	2527
25	2586
25	2638
25	2682
25	2694
25	2703
25	2718
25	2728
25	2744
25	2763
25	2765
25	2770
25	2789
25	2806
25	2849
25	2884
25	2885
25	2920
25	2934
25	2945
25	2956
25	2990
25	3007
25	3015
25	3018
25	3027
25	3091
25	3106
25	3109
25	3139
25	3162
25	3170
25	3179
25	3214
25	3244
25	3255
25	3266
25	3278
25	3298
25	3307
25	3337
25	3342
25	3353
25	3380
25	3412
25	3424
25	3455
25	3472
25	3478
25	3479
25	3517
25	3526
25	3531
25	3545
25	3639
25	3678
25	3705
25	3738
25	3740
25	3766
25	3834
25	3844
25	3852
25	3853
25	3861
25	3878
25	3905
25	3932
25	3933
25	3954
25	3998
25	4040
25	4057
25	4068
25	4086
25	4140
25	4145
25	4159
25	4184
25	4242
25	4245
25	4252
25	4280
25	4281
25	4305
25	4315
25	4344
25	4356
25	4449
25	4456
25	4551
25	4584
25	4613
25	4632
25	4644
25	4655
25	4666
25	4675
25	4678
25	4735
25	4745
25	4758
25	4768
25	4771
25	4793
25	4828
25	4903
25	4927
25	4948
25	4975
26	27
26	29
26	30
26	31
26	33
26	34
26	35
26	41
26	44
26	45
26	48
26	49
26	51
26	55
26	57
26	61
26	64
26	67
26	70
26	73
26	79
26	80
26	91
26	94
26	95
26	99
26	104
26	107
26	118
26	123
26	130
26	132
26	143
26	148
26	155
26	157
26	167
26	174
26	178
26	180
26	192
26	204
26	235
26	236
26	238
26	244
26	271
26	276
26	292
26	297
26	309
26	314
26	316
26	321
26	330
26	338
26	346
26	349
26	366
26	371
26	381
26	385
26	392
26	407
26	419
26	426
26	435
26	445
26	450
26	463
26	493
26	508
26	522
26	528
26	547
26	561
26	563
26	568
26	588
26	605
26	616
26	632
26	645
26	646
26	669
26	675
26	684
26	687
26	712
26	721
26	732
26	752
26	754
26	775
26	779
26	799
26	820
26	827
26	829
26	832
26	882
26	884
26	901
26	925
26	954
26	963
26	990
26	991
26	1020
26	1027
26	1032
26	1075
26	1107
26	1115
26	1117
26	1122
26	1139
26	1157
26	1165
26	1177
26	1186
26	1188
26	1194
26	1203
26	1218
26	1239
26	1251
26	1274
26	1279
26	1296
26	1299
26	1309
26	1320
26	1330
26	1331
26	1332
26	1337
26	1345
26	1348
26	1357
26	1367
26	1407
26	1408
26	1478
26	1480
26	1492
26	1536
26	1565
26	1577
26	1592
26	1607
26	1611
26	1613
26	1624
26	1653
26	1715
26	1738
26	1758
26	1801
26	1820
26	1831
26	1833
26	1860
26	1907
26	1925
26	1927
26	1975
26	1984
26	2016
26	2033
26	2051
26	2080
26	2097
26	2220
26	2225
26	2246
26	2268
26	2295
26	2310
26	2311
26	2316
26	2351
26	2354
26	2370
26	2409
26	2431
26	2463
26	2490
26	2516
26	2521
26	2528
26	2542
26	2551
26	2558
26	2568
26	2588
26	2614
26	2644
26	2660
26	2701
26	2788
26	2790
26	2854
26	2879
26	2903
26	2910
26	2916
26	2924
26	2995
26	3003
26	3045
26	3046
26	3062
26	3075
26	3087
26	3091
26	3125
26	3151
26	3193
26	3233
26	3247
26	3339
26	3387
26	3391
26	3411
26	3413
26	3418
26	3443
26	3527
26	3529
26	3550
26	3562
26	3619
26	3627
26	3659
26	3715
26	3723
26	3730
26	3772
26	3809
26	3825
26	3879
26	3915
26	3929
26	3981
26	3995
26	4045
26	4046
26	4048
26	4058
26	4071
26	4121
26	4149
26	4161
26	4190
26	4200
26	4233
26	4284
26	4326
26	4334
26	4351
26	4361
26	4390
26	4423
26	4434
26	4478
26	4564
26	4586
26	4624
26	4688
26	4732
26	4739
26	4806
26	4812
26	4906
26	4943
26	4948
27	28
27	30
27	31
27	35
27	41
27	44
27	46
27	47
27	48
27	53
27	55
27	56
27	57
27	63
27	65
27	67
27	68
27	69
27	72
27	77
27	81
27	86
27	91
27	94
27	96
27	97
27	100
27	105
27	106
27	108
27	111
27	113
27	116
27	125
27	128
27	130
27	136
27	141
27	143
27	168
27	169
27	171
27	179
27	181
27	188
27	189
27	195
27	205
27	213
27	214
27	230
27	231
27	238
27	241
27	256
27	257
27	264
27	265
27	269
27	274
27	282
27	289
27	293
27	298
27	299
27	302
27	308
27	309
27	320
27	321
27	322
27	325
27	346
27	360
27	365
27	378
27	386
27	396
27	407
27	411
27	425
27	449
27	477
27	483
27	486
27	516
27	564
27	570
27	573
27	585
27	589
27	627
27	640
27	648
27	661
27	663
27	681
27	688
27	695
27	706
27	712
27	717
27	752
27	761
27	784
27	786
27	788
27	801
27	807
27	837
27	873
27	897
27	901
27	918
27	932
27	938
27	945
27	950
27	955
27	992
27	995
27	1005
27	1018
27	1023
27	1061
27	1064
27	1067
27	1075
27	1092
27	1093
27	1105
27	1112
27	1141
27	1225
27	1270
27	1302
27	1305
27	1306
27	1324
27	1374
27	1392
27	1404
27	1409
27	1410
27	1445
27	1474
27	1502
27	1510
27	1517
27	1540
27	1572
27	1588
27	1604
27	1620
27	1643
27	1658
27	1703
27	1712
27	1720
27	1772
27	1776
27	1836
27	1837
27	1882
27	1902
27	1917
27	1927
27	1931
27	1932
27	1944
27	1982
27	1990
27	1991
27	2072
27	2097
27	2101
27	2108
27	2120
27	2131
27	2144
27	2175
27	2181
27	2188
27	2257
27	2277
27	2306
27	2321
27	2343
27	2345
27	2346
27	2409
27	2412
27	2415
27	2431
27	2510
27	2531
27	2594
27	2596
27	2624
27	2629
27	2651
27	2665
27	2796
27	2800
27	2801
27	2807
27	2809
27	2818
27	2829
27	2852
27	2858
27	2860
27	2861
27	2884
27	2956
27	2960
27	2978
27	2997
27	3024
27	3062
27	3064
27	3089
27	3093
27	3129
27	3168
27	3212
27	3247
27	3286
27	3301
27	3309
27	3325
27	3326
27	3434
27	3447
27	3451
27	3544
27	3548
27	3595
27	3662
27	3669
27	3670
27	3687
27	3695
27	3697
27	3712
27	3742
27	3756
27	3758
27	3834
27	3918
27	3947
27	4002
27	4016
27	4078
27	4154
27	4160
27	4166
27	4168
27	4195
27	4331
27	4346
27	4395
27	4457
27	4484
27	4487
27	4508
27	4517
27	4544
27	4588
27	4656
27	4699
27	4710
27	4729
27	4757
27	4770
27	4838
27	4886
27	4998
28	29
28	30
28	31
28	32
28	33
28	34
28	35
28	37
28	40
28	42
28	44
28	47
28	51
28	54
28	58
28	64
28	75
28	79
28	83
28	85
28	87
28	88
28	90
28	95
28	99
28	100
28	104
28	108
28	109
28	113
28	114
28	115
28	120
28	128
28	140
28	142
28	156
28	183
28	186
28	210
28	213
28	214
28	226
28	227
28	236
28	244
28	256
28	262
28	264
28	265
28	266
28	273
28	279
28	280
28	282
28	284
28	287
28	290
28	297
28	300
28	312
28	313
28	314
28	327
28	331
28	345
28	364
28	369
28	386
28	391
28	393
28	395
28	413
28	414
28	420
28	439
28	448
28	482
28	488
28	497
28	506
28	510
28	518
28	528
28	530
28	533
28	535
28	540
28	550
28	551
28	554
28	569
28	602
28	625
28	628
28	629
28	631
28	639
28	645
28	659
28	661
28	690
28	713
28	714
28	732
28	749
28	774
28	825
28	841
28	873
28	881
28	884
28	895
28	906
28	914
28	920
28	960
28	1005
28	1010
28	1020
28	1024
28	1031
28	1035
28	1039
28	1040
28	1086
28	1089
28	1090
28	1093
28	1095
28	1098
28	1117
28	1120
28	1137
28	1154
28	1160
28	1176
28	1178
28	1192
28	1193
28	1195
28	1206
28	1235
28	1245
28	1246
28	1262
28	1280
28	1289
28	1325
28	1348
28	1370
28	1374
28	1407
28	1411
28	1467
28	1472
28	1479
28	1482
28	1484
28	1494
28	1499
28	1521
28	1546
28	1558
28	1559
28	1574
28	1612
28	1617
28	1632
28	1699
28	1710
28	1712
28	1713
28	1723
28	1729
28	1731
28	1744
28	1759
28	1794
28	1800
28	1829
28	1892
28	1896
28	1898
28	1899
28	1902
28	1938
28	1941
28	1958
28	1988
28	2039
28	2057
28	2059
28	2066
28	2070
28	2082
28	2099
28	2116
28	2137
28	2144
28	2180
28	2195
28	2216
28	2226
28	2267
28	2289
28	2326
28	2397
28	2401
28	2411
28	2456
28	2474
28	2527
28	2562
28	2666
28	2682
28	2751
28	2768
28	2788
28	2828
28	2829
28	2837
28	2838
28	2858
28	2952
28	2999
28	3040
28	3059
28	3069
28	3099
28	3128
28	3133
28	3183
28	3200
28	3232
28	3269
28	3297
28	3311
28	3320
28	3410
28	3411
28	3419
28	3450
28	3518
28	3521
28	3524
28	3546
28	3572
28	3575
28	3581
28	3597
28	3671
28	3686
28	3728
28	3736
28	3769
28	3810
28	3862
28	3865
28	3901
28	3911
28	4030
28	4032
28	4050
28	4076
28	4130
28	4149
28	4187
28	4219
28	4240
28	4254
28	4298
28	4313
28	4322
28	4361
28	4379
28	4396
28	4422
28	4429
28	4451
28	4468
28	4488
28	4498
28	4500
28	4550
28	4565
28	4573
28	4618
28	4652
28	4654
28	4687
28	4695
28	4751
28	4757
28	4869
28	4877
28	4883
28	4900
28	4955
28	4963
28	4978
28	4990
29	30
29	31
29	32
29	33
29	34
29	35
29	37
29	39
29	40
29	42
29	43
29	48
29	49
29	50
29	53
29	67
29	70
29	72
29	73
29	74
29	77
29	88
29	89
29	92
29	103
29	106
29	108
29	124
29	126
29	128
29	131
29	138
29	139
29	144
29	150
29	156
29	158
29	164
29	170
29	183
29	184
29	187
29	203
29	211
29	212
29	219
29	221
29	222
29	223
29	228
29	232
29	234
29	237
29	245
29	263
29	265
29	266
29	286
29	292
29	325
29	330
29	343
29	352
29	357
29	360
29	364
29	372
29	378
29	388
29	424
29	428
29	438
29	443
29	453
29	466
29	467
29	473
29	482
29	487
29	488
29	494
29	505
29	527
29	531
29	539
29	561
29	562
29	577
29	585
29	596
29	602
29	610
29	642
29	644
29	660
29	681
29	684
29	726
29	742
29	748
29	761
29	762
29	780
29	783
29	786
29	796
29	817
29	823
29	834
29	844
29	848
29	876
29	877
29	906
29	922
29	936
29	937
29	949
29	967
29	969
29	992
29	1004
29	1007
29	1015
29	1058
29	1065
29	1070
29	1098
29	1106
29	1122
29	1132
29	1143
29	1149
29	1178
29	1196
29	1205
29	1254
29	1264
29	1304
29	1306
29	1307
29	1344
29	1358
29	1367
29	1371
29	1375
29	1389
29	1394
29	1403
29	1409
29	1491
29	1530
29	1536
29	1551
29	1580
29	1589
29	1593
29	1609
29	1632
29	1638
29	1647
29	1705
29	1706
29	1712
29	1733
29	1745
29	1813
29	1840
29	1872
29	1881
29	1905
29	1954
29	1959
29	1960
29	1984
29	1998
29	2009
29	2066
29	2086
29	2101
29	2104
29	2114
29	2145
29	2181
29	2182
29	2183
29	2188
29	2190
29	2191
29	2205
29	2208
29	2218
29	2253
29	2275
29	2287
29	2422
29	2432
29	2441
29	2442
29	2504
29	2512
29	2561
29	2577
29	2584
29	2585
29	2650
29	2659
29	2680
29	2697
29	2711
29	2717
29	2718
29	2773
29	2795
29	2861
29	2862
29	2873
29	2882
29	2894
29	2982
29	3023
29	3045
29	3052
29	3053
29	3065
29	3067
29	3089
29	3126
29	3144
29	3145
29	3186
29	3190
29	3209
29	3226
29	3228
29	3263
29	3282
29	3286
29	3304
29	3305
29	3331
29	3338
29	3355
29	3369
29	3388
29	3414
29	3432
29	3435
29	3460
29	3527
29	3528
29	3622
29	3677
29	3763
29	3765
29	3776
29	3798
29	3832
29	3851
29	3907
29	3943
29	4003
29	4049
29	4059
29	4081
29	4086
29	4107
29	4127
29	4136
29	4234
29	4252
29	4257
29	4265
29	4311
29	4352
29	4457
29	4504
29	4555
29	4575
29	4591
29	4607
29	4679
29	4746
29	4759
29	4787
29	4797
29	4838
29	4908
29	4913
29	4944
30	31
30	32
30	33
30	35
30	36
30	37
30	38
30	40
30	43
30	44
30	46
30	48
30	49
30	51
30	52
30	53
30	54
30	58
30	60
30	61
30	63
30	68
30	71
30	73
30	74
30	77
30	78
30	83
30	84
30	86
30	88
30	90
30	93
30	94
30	95
30	96
30	99
30	100
30	108
30	112
30	120
30	121
30	133
30	138
30	153
30	161
30	164
30	171
30	174
30	180
30	189
30	196
30	212
30	214
30	217
30	225
30	228
30	229
30	239
30	241
30	243
30	244
30	248
30	251
30	262
30	264
30	266
30	271
30	274
30	281
30	283
30	300
30	301
30	304
30	323
30	326
30	347
30	352
30	353
30	357
30	360
30	366
30	367
30	376
30	393
30	412
30	426
30	434
30	445
30	448
30	467
30	476
30	485
30	486
30	487
30	491
30	492
30	502
30	505
30	506
30	522
30	540
30	545
30	546
30	549
30	553
30	561
30	563
30	592
30	601
30	607
30	617
30	625
30	641
30	650
30	654
30	670
30	679
30	692
30	694
30	699
30	705
30	707
30	725
30	746
30	749
30	770
30	781
30	798
30	827
30	854
30	857
30	865
30	870
30	929
30	961
30	967
30	968
30	1010
30	1036
30	1038
30	1067
30	1072
30	1079
30	1082
30	1084
30	1092
30	1117
30	1147
30	1153
30	1180
30	1198
30	1203
30	1222
30	1255
30	1266
30	1281
30	1304
30	1326
30	1327
30	1328
30	1385
30	1405
30	1409
30	1434
30	1468
30	1518
30	1519
30	1521
30	1539
30	1557
30	1582
30	1584
30	1590
30	1608
30	1628
30	1632
30	1643
30	1685
30	1690
30	1693
30	1696
30	1701
30	1731
30	1742
30	1759
30	1783
30	1790
30	1813
30	1848
30	1865
30	1935
30	1942
30	1950
30	1963
30	1991
30	2050
30	2063
30	2116
30	2143
30	2152
30	2163
30	2164
30	2167
30	2176
30	2178
30	2182
30	2187
30	2205
30	2218
30	2224
30	2230
30	2254
30	2258
30	2261
30	2286
30	2313
30	2345
30	2369
30	2380
30	2403
30	2446
30	2447
30	2452
30	2454
30	2455
30	2493
30	2498
30	2533
30	2534
30	2552
30	2620
30	2682
30	2700
30	2701
30	2705
30	2730
30	2745
30	2778
30	2877
30	2882
30	2926
30	2935
30	2941
30	2954
30	2983
30	3023
30	3024
30	3051
30	3064
30	3118
30	3142
30	3143
30	3160
30	3171
30	3173
30	3181
30	3202
30	3218
30	3223
30	3248
30	3254
30	3300
30	3339
30	3352
30	3366
30	3381
30	3382
30	3385
30	3431
30	3451
30	3478
30	3513
30	3516
30	3557
30	3561
30	3595
30	3603
30	3670
30	3672
30	3725
30	3775
30	3836
30	3874
30	3919
30	3926
30	3927
30	3929
30	3993
30	4115
30	4125
30	4155
30	4162
30	4185
30	4231
30	4360
30	4461
30	4479
30	4480
30	4500
30	4532
30	4534
30	4577
30	4614
30	4763
30	4765
30	4840
30	4963
31	32
31	37
31	39
31	42
31	48
31	49
31	50
31	52
31	56
31	60
31	64
31	66
31	72
31	81
31	86
31	88
31	92
31	95
31	100
31	116
31	118
31	122
31	123
31	125
31	129
31	131
31	134
31	135
31	136
31	141
31	143
31	144
31	145
31	147
31	155
31	160
31	162
31	167
31	169
31	177
31	186
31	209
31	210
31	223
31	226
31	242
31	246
31	257
31	268
31	269
31	285
31	299
31	306
31	312
31	325
31	349
31	372
31	377
31	388
31	389
31	393
31	395
31	396
31	409
31	410
31	428
31	449
31	457
31	461
31	464
31	487
31	495
31	503
31	521
31	526
31	535
31	538
31	566
31	571
31	572
31	587
31	602
31	629
31	632
31	636
31	647
31	682
31	691
31	704
31	720
31	744
31	766
31	774
31	778
31	804
31	813
31	842
31	858
31	895
31	897
31	911
31	919
31	927
31	934
31	946
31	955
31	1017
31	1020
31	1038
31	1042
31	1052
31	1073
31	1076
31	1083
31	1126
31	1144
31	1156
31	1179
31	1184
31	1185
31	1199
31	1227
31	1267
31	1281
31	1292
31	1293
31	1297
31	1313
31	1330
31	1335
31	1343
31	1363
31	1384
31	1400
31	1410
31	1414
31	1416
31	1439
31	1464
31	1466
31	1496
31	1508
31	1526
31	1560
31	1571
31	1572
31	1592
31	1658
31	1678
31	1679
31	1716
31	1786
31	1808
31	1826
31	1887
31	1901
31	1914
31	1916
31	1933
31	1998
31	2027
31	2040
31	2071
31	2079
31	2114
31	2120
31	2125
31	2139
31	2151
31	2200
31	2213
31	2233
31	2289
31	2296
31	2327
31	2382
31	2388
31	2398
31	2400
31	2402
31	2566
31	2567
31	2578
31	2635
31	2649
31	2672
31	2695
31	2760
31	2788
31	2842
31	2876
31	2878
31	2884
31	2893
31	2902
31	2909
31	2915
31	2966
31	2992
31	3026
31	3040
31	3090
31	3096
31	3139
31	3143
31	3215
31	3236
31	3261
31	3292
31	3299
31	3311
31	3392
31	3396
31	3472
31	3528
31	3596
31	3608
31	3738
31	3746
31	3871
31	3933
31	3947
31	3950
31	3964
31	3976
31	4006
31	4011
31	4016
31	4022
31	4071
31	4082
31	4102
31	4113
31	4142
31	4202
31	4244
31	4310
31	4403
31	4428
31	4452
31	4470
31	4486
31	4490
31	4526
31	4583
31	4590
31	4613
31	4627
31	4644
31	4742
31	4810
31	4812
31	4826
31	4884
31	4916
31	4917
31	4974
32	34
32	36
32	38
32	39
32	50
32	51
32	52
32	80
32	82
32	87
32	88
32	91
32	93
32	98
32	107
32	110
32	116
32	132
32	134
32	140
32	146
32	154
32	163
32	182
32	188
32	189
32	199
32	200
32	201
32	206
32	209
32	214
32	236
32	243
32	256
32	279
32	280
32	283
32	285
32	291
32	315
32	356
32	377
32	414
32	417
32	426
32	444
32	482
32	505
32	512
32	514
32	519
32	524
32	527
32	538
32	551
32	554
32	557
32	565
32	569
32	581
32	600
32	604
32	614
32	637
32	667
32	668
32	673
32	679
32	709
32	727
32	746
32	761
32	775
32	798
32	801
32	824
32	825
32	846
32	848
32	861
32	900
32	901
32	922
32	934
32	944
32	987
32	988
32	990
32	1017
32	1053
32	1064
32	1077
32	1140
32	1202
32	1212
32	1235
32	1236
32	1265
32	1271
32	1281
32	1307
32	1366
32	1375
32	1423
32	1446
32	1460
32	1504
32	1531
32	1577
32	1578
32	1643
32	1688
32	1720
32	1727
32	1756
32	1804
32	1879
32	1899
32	1934
32	1979
32	2056
32	2100
32	2189
32	2228
32	2230
32	2270
32	2271
32	2322
32	2337
32	2343
32	2348
32	2369
32	2384
32	2416
32	2420
32	2434
32	2498
32	2510
32	2527
32	2595
32	2625
32	2768
32	2952
32	3026
32	3028
32	3083
32	3159
32	3165
32	3178
32	3260
32	3307
32	3364
32	3398
32	3437
32	3499
32	3541
32	3552
32	3557
32	3569
32	3581
32	3601
32	3604
32	3640
32	3649
32	3679
32	3693
32	3726
32	3787
32	3913
32	3942
32	3986
32	4003
32	4034
32	4062
32	4064
32	4070
32	4102
32	4107
32	4204
32	4220
32	4265
32	4285
32	4420
32	4516
32	4571
32	4598
32	4838
32	4859
32	4912
32	4943
33	34
33	35
33	38
33	39
33	40
33	42
33	51
33	53
33	54
33	60
33	61
33	65
33	66
33	67
33	68
33	75
33	76
33	77
33	80
33	84
33	90
33	97
33	102
33	109
33	112
33	115
33	122
33	123
33	126
33	127
33	129
33	131
33	139
33	143
33	147
33	148
33	151
33	152
33	164
33	169
33	170
33	175
33	177
33	190
33	192
33	198
33	203
33	205
33	208
33	214
33	217
33	222
33	232
33	235
33	247
33	254
33	255
33	256
33	259
33	263
33	269
33	277
33	278
33	283
33	289
33	303
33	309
33	318
33	329
33	336
33	344
33	345
33	355
33	356
33	361
33	383
33	392
33	395
33	398
33	423
33	426
33	441
33	453
33	456
33	467
33	474
33	477
33	491
33	495
33	518
33	527
33	544
33	551
33	560
33	565
33	575
33	578
33	579
33	580
33	585
33	605
33	617
33	620
33	623
33	626
33	634
33	647
33	648
33	653
33	663
33	679
33	696
33	706
33	716
33	733
33	734
33	756
33	759
33	763
33	771
33	772
33	778
33	780
33	788
33	806
33	808
33	829
33	836
33	842
33	861
33	870
33	878
33	885
33	888
33	897
33	907
33	908
33	916
33	920
33	930
33	933
33	943
33	958
33	972
33	998
33	1010
33	1011
33	1013
33	1014
33	1030
33	1034
33	1057
33	1065
33	1089
33	1125
33	1129
33	1147
33	1148
33	1158
33	1183
33	1196
33	1198
33	1223
33	1230
33	1246
33	1285
33	1296
33	1347
33	1361
33	1366
33	1388
33	1394
33	1418
33	1423
33	1431
33	1473
33	1478
33	1498
33	1510
33	1522
33	1526
33	1527
33	1552
33	1630
33	1673
33	1711
33	1715
33	1724
33	1725
33	1734
33	1738
33	1740
33	1756
33	1765
33	1790
33	1796
33	1799
33	1820
33	1830
33	1833
33	1868
33	1872
33	1895
33	1917
33	1925
33	1955
33	1966
33	1984
33	2007
33	2010
33	2057
33	2131
33	2203
33	2250
33	2277
33	2287
33	2297
33	2304
33	2361
33	2381
33	2393
33	2419
33	2422
33	2432
33	2460
33	2471
33	2474
33	2491
33	2497
33	2504
33	2519
33	2522
33	2543
33	2555
33	2570
33	2576
33	2579
33	2580
33	2594
33	2633
33	2684
33	2709
33	2744
33	2751
33	2768
33	2786
33	2851
33	2865
33	2872
33	2873
33	2894
33	2906
33	2908
33	2927
33	2971
33	2976
33	2996
33	3024
33	3045
33	3065
33	3067
33	3071
33	3074
33	3085
33	3143
33	3150
33	3176
33	3193
33	3203
33	3217
33	3258
33	3276
33	3286
33	3305
33	3361
33	3424
33	3425
33	3490
33	3501
33	3532
33	3541
33	3542
33	3549
33	3552
33	3558
33	3572
33	3587
33	3593
33	3617
33	3653
33	3662
33	3673
33	3675
33	3688
33	3761
33	3762
33	3778
33	3803
33	3808
33	3844
33	3877
33	3900
33	3916
33	3923
33	3945
33	3955
33	3986
33	3994
33	4097
33	4121
33	4136
33	4158
33	4171
33	4219
33	4229
33	4230
33	4235
33	4275
33	4285
33	4310
33	4331
33	4366
33	4381
33	4415
33	4431
33	4489
33	4507
33	4513
33	4538
33	4569
33	4596
33	4664
33	4665
33	4666
33	4800
33	4850
33	4875
33	4919
33	4950
33	4977
33	4979
33	4983
34	35
34	37
34	41
34	46
34	47
34	52
34	54
34	58
34	59
34	62
34	63
34	64
34	65
34	71
34	72
34	74
34	76
34	77
34	87
34	92
34	94
34	101
34	102
34	110
34	114
34	117
34	122
34	131
34	133
34	135
34	140
34	142
34	147
34	161
34	163
34	164
34	168
34	172
34	184
34	195
34	196
34	197
34	208
34	222
34	236
34	237
34	239
34	245
34	248
34	254
34	274
34	276
34	281
34	289
34	290
34	295
34	297
34	303
34	307
34	315
34	324
34	327
34	329
34	333
34	336
34	348
34	364
34	380
34	399
34	408
34	411
34	428
34	431
34	433
34	438
34	440
34	443
34	445
34	482
34	504
34	505
34	511
34	512
34	518
34	536
34	548
34	554
34	569
34	578
34	586
34	602
34	609
34	616
34	623
34	653
34	659
34	676
34	684
34	686
34	705
34	740
34	748
34	757
34	778
34	782
34	828
34	838
34	846
34	870
34	883
34	904
34	909
34	931
34	958
34	979
34	986
34	987
34	1002
34	1004
34	1008
34	1031
34	1046
34	1079
34	1106
34	1111
34	1126
34	1131
34	1145
34	1151
34	1175
34	1176
34	1191
34	1194
34	1235
34	1240
34	1242
34	1259
34	1276
34	1304
34	1341
34	1349
34	1395
34	1396
34	1400
34	1405
34	1415
34	1472
34	1491
34	1493
34	1515
34	1526
34	1566
34	1573
34	1593
34	1611
34	1637
34	1642
34	1670
34	1744
34	1780
34	1873
34	1884
34	1885
34	1910
34	1947
34	1956
34	1958
34	1963
34	1979
34	2010
34	2060
34	2109
34	2121
34	2141
34	2161
34	2173
34	2186
34	2190
34	2235
34	2236
34	2246
34	2253
34	2262
34	2288
34	2292
34	2330
34	2402
34	2459
34	2497
34	2519
34	2525
34	2576
34	2602
34	2610
34	2707
34	2740
34	2784
34	2790
34	2844
34	2874
34	2875
34	2877
34	2884
34	2885
34	2941
34	2983
34	2991
34	3006
34	3020
34	3048
34	3054
34	3057
34	3066
34	3127
34	3181
34	3217
34	3223
34	3229
34	3241
34	3255
34	3267
34	3273
34	3280
34	3347
34	3507
34	3510
34	3520
34	3557
34	3628
34	3635
34	3654
34	3680
34	3706
34	3722
34	3743
34	3746
34	3783
34	3793
34	3843
34	3867
34	3871
34	3880
34	3890
34	3891
34	3899
34	3951
34	3966
34	3986
34	4032
34	4046
34	4059
34	4103
34	4111
34	4217
34	4249
34	4291
34	4330
34	4342
34	4414
34	4508
34	4525
34	4561
34	4571
34	4654
34	4677
34	4679
34	4703
34	4715
34	4894
34	4933
35	37
35	38
35	42
35	46
35	47
35	49
35	52
35	53
35	54
35	55
35	56
35	57
35	59
35	60
35	63
35	68
35	70
35	75
35	81
35	82
35	84
35	91
35	93
35	101
35	102
35	104
35	106
35	112
35	113
35	121
35	127
35	128
35	135
35	161
35	169
35	173
35	174
35	183
35	187
35	202
35	203
35	207
35	210
35	247
35	250
35	252
35	273
35	294
35	295
35	307
35	313
35	315
35	322
35	325
35	345
35	347
35	357
35	371
35	374
35	389
35	393
35	398
35	399
35	406
35	423
35	424
35	449
35	462
35	477
35	479
35	483
35	488
35	496
35	498
35	499
35	506
35	533
35	539
35	546
35	567
35	606
35	614
35	623
35	627
35	649
35	679
35	695
35	710
35	723
35	742
35	763
35	790
35	791
35	825
35	831
35	863
35	864
35	889
35	891
35	900
35	943
35	985
35	988
35	993
35	1027
35	1029
35	1048
35	1069
35	1082
35	1090
35	1100
35	1132
35	1133
35	1136
35	1139
35	1176
35	1179
35	1186
35	1191
35	1229
35	1260
35	1282
35	1294
35	1324
35	1333
35	1371
35	1427
35	1447
35	1453
35	1454
35	1496
35	1515
35	1524
35	1616
35	1650
35	1656
35	1657
35	1700
35	1740
35	1752
35	1762
35	1781
35	1842
35	1847
35	1971
35	1979
35	2037
35	2100
35	2152
35	2181
35	2195
35	2238
35	2249
35	2256
35	2258
35	2312
35	2347
35	2360
35	2362
35	2366
35	2368
35	2382
35	2385
35	2441
35	2523
35	2536
35	2541
35	2545
35	2622
35	2625
35	2665
35	2678
35	2723
35	2757
35	2766
35	2775
35	2792
35	2821
35	2857
35	2893
35	2948
35	2961
35	3036
35	3172
35	3189
35	3211
35	3224
35	3262
35	3263
35	3329
35	3380
35	3392
35	3429
35	3492
35	3526
35	3543
35	3550
35	3559
35	3594
35	3611
35	3635
35	3697
35	3710
35	3718
35	3742
35	3754
35	3883
35	4020
35	4024
35	4055
35	4099
35	4146
35	4226
35	4316
35	4384
35	4413
35	4417
35	4425
35	4481
35	4637
35	4725
35	4740
35	4752
35	4848
35	4854
36	39
36	40
36	43
36	49
36	53
36	56
36	62
36	68
36	70
36	76
36	80
36	86
36	105
36	113
36	126
36	128
36	130
36	134
36	139
36	140
36	142
36	144
36	150
36	155
36	165
36	171
36	179
36	211
36	212
36	224
36	236
36	241
36	260
36	264
36	268
36	270
36	286
36	300
36	301
36	302
36	317
36	319
36	320
36	322
36	334
36	351
36	354
36	355
36	356
36	368
36	381
36	407
36	416
36	423
36	445
36	447
36	457
36	460
36	471
36	480
36	495
36	509
36	512
36	519
36	530
36	561
36	569
36	576
36	581
36	638
36	640
36	641
36	690
36	719
36	743
36	760
36	767
36	788
36	792
36	799
36	800
36	807
36	827
36	849
36	870
36	891
36	916
36	934
36	936
36	937
36	941
36	973
36	1005
36	1052
36	1087
36	1094
36	1096
36	1129
36	1146
36	1168
36	1194
36	1202
36	1205
36	1218
36	1219
36	1269
36	1338
36	1407
36	1425
36	1456
36	1461
36	1464
36	1475
36	1583
36	1593
36	1642
36	1664
36	1673
36	1689
36	1693
36	1708
36	1711
36	1713
36	1721
36	1821
36	1822
36	1864
36	1873
36	1881
36	1896
36	1919
36	1921
36	1945
36	1948
36	1949
36	1957
36	1980
36	2001
36	2009
36	2019
36	2067
36	2072
36	2092
36	2128
36	2159
36	2200
36	2230
36	2242
36	2290
36	2304
36	2345
36	2378
36	2380
36	2384
36	2534
36	2536
36	2539
36	2571
36	2667
36	2668
36	2736
36	2741
36	2760
36	2813
36	2839
36	2844
36	2845
36	2854
36	2858
36	2884
36	2889
36	2908
36	2909
36	2919
36	2941
36	2983
36	2996
36	3033
36	3050
36	3156
36	3168
36	3175
36	3237
36	3255
36	3258
36	3283
36	3294
36	3343
36	3371
36	3393
36	3440
36	3450
36	3455
36	3481
36	3552
36	3554
36	3557
36	3564
36	3569
36	3576
36	3606
36	3624
36	3643
36	3656
36	3760
36	3797
36	3837
36	3843
36	3854
36	3891
36	3922
36	3925
36	3997
36	4045
36	4112
36	4169
36	4201
36	4219
36	4221
36	4276
36	4315
36	4356
36	4357
36	4391
36	4424
36	4435
36	4440
36	4514
36	4541
36	4561
36	4730
36	4742
36	4763
36	4887
36	4888
36	4908
36	4983
37	38
37	42
37	43
37	45
37	48
37	50
37	52
37	59
37	62
37	63
37	64
37	67
37	68
37	69
37	100
37	110
37	116
37	119
37	120
37	124
37	180
37	190
37	201
37	204
37	207
37	214
37	223
37	224
37	238
37	243
37	251
37	285
37	293
37	309
37	326
37	354
37	370
37	379
37	401
37	402
37	416
37	417
37	451
37	509
37	515
37	526
37	531
37	533
37	584
37	595
37	607
37	626
37	654
37	672
37	677
37	702
37	743
37	746
37	760
37	761
37	763
37	813
37	841
37	845
37	852
37	869
37	879
37	886
37	974
37	1096
37	1124
37	1128
37	1135
37	1170
37	1198
37	1216
37	1227
37	1268
37	1277
37	1337
37	1424
37	1448
37	1449
37	1469
37	1492
37	1523
37	1608
37	1626
37	1637
37	1681
37	1709
37	1711
37	1715
37	1829
37	1832
37	1838
37	1844
37	1903
37	1942
37	1947
37	1966
37	1972
37	1979
37	1980
37	2091
37	2097
37	2107
37	2148
37	2160
37	2192
37	2202
37	2255
37	2259
37	2260
37	2335
37	2378
37	2382
37	2413
37	2415
37	2427
37	2435
37	2473
37	2542
37	2582
37	2586
37	2589
37	2598
37	2601
37	2664
37	2669
37	2721
37	2772
37	2781
37	2846
37	2857
37	2867
37	2881
37	2891
37	2950
37	2982
37	3159
37	3192
37	3267
37	3301
37	3324
37	3368
37	3370
37	3425
37	3448
37	3479
37	3525
37	3561
37	3583
37	3586
37	3589
37	3615
37	3657
37	3739
37	3752
37	3802
37	3840
37	3951
37	4149
37	4205
37	4332
37	4335
37	4405
37	4472
37	4480
37	4491
37	4541
37	4589
37	4601
37	4625
37	4666
37	4686
37	4711
37	4716
37	4762
37	4789
37	4878
37	4970
37	4972
37	4974
38	40
38	41
38	42
38	46
38	47
38	58
38	62
38	67
38	68
38	75
38	81
38	87
38	96
38	97
38	101
38	105
38	106
38	120
38	129
38	131
38	149
38	151
38	152
38	156
38	159
38	185
38	190
38	191
38	201
38	206
38	207
38	219
38	225
38	232
38	233
38	246
38	247
38	265
38	273
38	308
38	321
38	337
38	341
38	349
38	366
38	374
38	385
38	403
38	404
38	406
38	407
38	422
38	444
38	461
38	473
38	475
38	495
38	500
38	501
38	552
38	562
38	580
38	581
38	584
38	595
38	596
38	604
38	667
38	676
38	677
38	686
38	698
38	706
38	712
38	717
38	722
38	726
38	743
38	752
38	805
38	811
38	814
38	817
38	818
38	830
38	850
38	863
38	872
38	889
38	910
38	912
38	943
38	944
38	982
38	983
38	1032
38	1037
38	1045
38	1056
38	1061
38	1118
38	1128
38	1160
38	1163
38	1173
38	1180
38	1209
38	1257
38	1294
38	1303
38	1306
38	1351
38	1354
38	1360
38	1373
38	1419
38	1474
38	1488
38	1517
38	1519
38	1523
38	1543
38	1572
38	1576
38	1583
38	1601
38	1621
38	1662
38	1683
38	1698
38	1717
38	1753
38	1763
38	1765
38	1799
38	1820
38	1830
38	1836
38	1847
38	1882
38	1899
38	1934
38	1937
38	1986
38	2008
38	2014
38	2024
38	2047
38	2084
38	2102
38	2164
38	2165
38	2214
38	2311
38	2314
38	2319
38	2338
38	2350
38	2362
38	2500
38	2538
38	2588
38	2657
38	2691
38	2692
38	2715
38	2718
38	2786
38	2846
38	2857
38	2866
38	2889
38	2904
38	2914
38	2927
38	2936
38	2985
38	2986
38	2994
38	3003
38	3063
38	3084
38	3105
38	3137
38	3177
38	3240
38	3241
38	3244
38	3257
38	3276
38	3333
38	3360
38	3429
38	3504
38	3507
38	3525
38	3542
38	3644
38	3660
38	3679
38	3694
38	3763
38	3768
38	3778
38	3868
38	3902
38	3907
38	3968
38	4005
38	4056
38	4097
38	4126
38	4144
38	4168
38	4291
38	4336
38	4395
38	4426
38	4461
38	4481
38	4504
38	4522
38	4566
38	4598
38	4608
38	4750
38	4834
38	4859
38	4866
38	4894
38	4916
38	4994
39	43
39	46
39	49
39	54
39	55
39	60
39	64
39	66
39	69
39	73
39	75
39	76
39	79
39	80
39	82
39	83
39	88
39	90
39	93
39	94
39	103
39	108
39	110
39	111
39	112
39	114
39	115
39	118
39	120
39	124
39	130
39	134
39	142
39	146
39	154
39	163
39	185
39	191
39	200
39	201
39	206
39	215
39	220
39	225
39	227
39	229
39	239
39	240
39	242
39	245
39	248
39	252
39	253
39	267
39	270
39	284
39	288
39	290
39	296
39	299
39	303
39	309
39	321
39	324
39	332
39	340
39	342
39	371
39	376
39	401
39	432
39	437
39	442
39	448
39	459
39	478
39	479
39	494
39	499
39	503
39	504
39	505
39	515
39	545
39	555
39	556
39	559
39	564
39	577
39	588
39	591
39	593
39	594
39	600
39	604
39	613
39	618
39	640
39	654
39	666
39	676
39	713
39	723
39	735
39	754
39	765
39	774
39	790
39	793
39	809
39	835
39	837
39	841
39	847
39	865
39	877
39	880
39	890
39	908
39	918
39	922
39	936
39	968
39	977
39	978
39	984
39	988
39	1000
39	1006
39	1012
39	1020
39	1043
39	1105
39	1144
39	1148
39	1151
39	1171
39	1197
39	1203
39	1212
39	1224
39	1238
39	1256
39	1257
39	1292
39	1311
39	1315
39	1316
39	1327
39	1338
39	1349
39	1362
39	1374
39	1390
39	1439
39	1440
39	1478
39	1486
39	1490
39	1507
39	1515
39	1569
39	1570
39	1587
39	1588
39	1606
39	1615
39	1647
39	1677
39	1698
39	1732
39	1748
39	1771
39	1796
39	1853
39	1858
39	1885
39	1892
39	1900
39	1916
39	1947
39	1956
39	1982
39	2020
39	2067
39	2090
39	2093
39	2129
39	2145
39	2158
39	2160
39	2177
39	2196
39	2197
39	2210
39	2211
39	2243
39	2245
39	2285
39	2303
39	2315
39	2439
39	2455
39	2473
39	2481
39	2512
39	2523
39	2542
39	2577
39	2592
39	2617
39	2645
39	2659
39	2730
39	2736
39	2745
39	2751
39	2759
39	2836
39	2889
39	2969
39	2990
39	2996
39	3003
39	3009
39	3012
39	3052
39	3058
39	3110
39	3111
39	3130
39	3154
39	3174
39	3188
39	3221
39	3240
39	3257
39	3267
39	3284
39	3291
39	3296
39	3299
39	3363
39	3370
39	3373
39	3381
39	3482
39	3490
39	3537
39	3570
39	3574
39	3701
39	3768
39	3892
39	3926
39	3977
39	3986
39	3993
39	4001
39	4021
39	4028
39	4051
39	4138
39	4176
39	4220
39	4226
39	4251
39	4271
39	4347
39	4393
39	4397
39	4501
39	4505
39	4543
39	4546
39	4574
39	4629
39	4630
39	4637
39	4677
39	4720
39	4747
39	4748
39	4768
39	4778
39	4781
39	4856
39	4883
39	4888
40	41
40	42
40	44
40	45
40	46
40	48
40	50
40	56
40	68
40	70
40	72
40	86
40	96
40	97
40	104
40	112
40	118
40	123
40	142
40	147
40	165
40	174
40	179
40	185
40	195
40	201
40	213
40	215
40	220
40	239
40	241
40	264
40	277
40	315
40	327
40	330
40	354
40	364
40	371
40	393
40	394
40	412
40	432
40	478
40	490
40	497
40	521
40	525
40	541
40	543
40	550
40	575
40	585
40	604
40	617
40	628
40	685
40	686
40	689
40	724
40	732
40	782
40	791
40	815
40	862
40	919
40	923
40	941
40	943
40	960
40	976
40	1000
40	1013
40	1022
40	1026
40	1055
40	1080
40	1108
40	1122
40	1145
40	1150
40	1173
40	1266
40	1287
40	1426
40	1455
40	1551
40	1560
40	1588
40	1594
40	1596
40	1598
40	1603
40	1607
40	1611
40	1680
40	1683
40	1733
40	1894
40	1901
40	1920
40	1945
40	1959
40	1966
40	1978
40	1994
40	2003
40	2031
40	2067
40	2080
40	2119
40	2120
40	2137
40	2184
40	2189
40	2192
40	2217
40	2231
40	2232
40	2253
40	2348
40	2377
40	2382
40	2438
40	2442
40	2470
40	2501
40	2503
40	2558
40	2562
40	2623
40	2632
40	2645
40	2666
40	2673
40	2782
40	2819
40	2827
40	2950
40	2970
40	2993
40	3000
40	3072
40	3082
40	3093
40	3098
40	3121
40	3235
40	3266
40	3348
40	3351
40	3548
40	3567
40	3600
40	3735
40	3759
40	3813
40	3956
40	3964
40	3979
40	4006
40	4009
40	4013
40	4052
40	4060
40	4157
40	4178
40	4227
40	4376
40	4385
40	4399
40	4445
40	4529
40	4537
40	4566
40	4589
40	4596
40	4598
40	4663
40	4698
40	4714
40	4755
40	4887
40	4911
40	4965
41	45
41	46
41	48
41	74
41	82
41	101
41	120
41	135
41	145
41	174
41	183
41	184
41	187
41	194
41	196
41	242
41	274
41	278
41	297
41	310
41	311
41	318
41	322
41	352
41	364
41	386
41	387
41	390
41	398
41	418
41	425
41	426
41	435
41	436
41	460
41	479
41	481
41	485
41	527
41	543
41	579
41	617
41	653
41	660
41	665
41	834
41	861
41	871
41	874
41	890
41	903
41	917
41	933
41	938
41	960
41	966
41	967
41	1028
41	1033
41	1063
41	1083
41	1111
41	1141
41	1206
41	1210
41	1279
41	1394
41	1406
41	1408
41	1430
41	1431
41	1475
41	1486
41	1488
41	1498
41	1499
41	1504
41	1587
41	1709
41	1747
41	1772
41	1782
41	1794
41	1800
41	1850
41	1863
41	1880
41	1893
41	1894
41	1944
41	1955
41	1960
41	1962
41	1966
41	1969
41	1987
41	2008
41	2062
41	2120
41	2185
41	2193
41	2216
41	2245
41	2248
41	2273
41	2288
41	2294
41	2295
41	2344
41	2432
41	2433
41	2475
41	2498
41	2519
41	2525
41	2592
41	2684
41	2717
41	2777
41	2784
41	2840
41	2849
41	2907
41	2943
41	2953
41	2954
41	3039
41	3050
41	3153
41	3167
41	3306
41	3431
41	3434
41	3474
41	3489
41	3529
41	3563
41	3579
41	3632
41	3641
41	3673
41	3739
41	3751
41	3773
41	3859
41	4105
41	4121
41	4159
41	4183
41	4187
41	4262
41	4288
41	4304
41	4450
41	4500
41	4539
41	4634
41	4702
41	4706
41	4754
41	4873
41	4921
41	4946
41	4972
41	4977
41	4984
41	4995
42	46
42	51
42	52
42	58
42	62
42	63
42	65
42	70
42	85
42	97
42	101
42	113
42	117
42	121
42	123
42	124
42	131
42	132
42	139
42	143
42	144
42	146
42	147
42	153
42	165
42	167
42	170
42	185
42	188
42	194
42	199
42	200
42	206
42	217
42	241
42	254
42	260
42	263
42	266
42	271
42	272
42	274
42	275
42	286
42	288
42	289
42	298
42	308
42	318
42	320
42	326
42	327
42	332
42	353
42	361
42	375
42	390
42	397
42	409
42	415
42	423
42	424
42	427
42	444
42	445
42	453
42	474
42	486
42	499
42	507
42	536
42	549
42	552
42	578
42	584
42	585
42	591
42	596
42	624
42	643
42	670
42	715
42	720
42	723
42	732
42	738
42	741
42	749
42	772
42	773
42	808
42	824
42	834
42	838
42	855
42	861
42	904
42	905
42	962
42	984
42	988
42	1007
42	1008
42	1015
42	1035
42	1074
42	1092
42	1096
42	1156
42	1198
42	1218
42	1226
42	1251
42	1265
42	1273
42	1281
42	1292
42	1298
42	1329
42	1330
42	1331
42	1386
42	1388
42	1429
42	1436
42	1453
42	1455
42	1456
42	1488
42	1491
42	1497
42	1500
42	1561
42	1646
42	1671
42	1678
42	1693
42	1704
42	1723
42	1727
42	1741
42	1753
42	1811
42	1832
42	1844
42	1863
42	1902
42	1906
42	1916
42	1929
42	1971
42	2008
42	2017
42	2035
42	2060
42	2088
42	2129
42	2140
42	2158
42	2160
42	2168
42	2169
42	2187
42	2219
42	2323
42	2348
42	2392
42	2395
42	2396
42	2444
42	2453
42	2497
42	2514
42	2540
42	2588
42	2610
42	2644
42	2671
42	2702
42	2749
42	2774
42	2828
42	2840
42	2844
42	2890
42	2900
42	2940
42	2972
42	3088
42	3102
42	3123
42	3168
42	3218
42	3228
42	3288
42	3307
42	3308
42	3336
42	3433
42	3498
42	3503
42	3509
42	3570
42	3572
42	3603
42	3604
42	3613
42	3639
42	3682
42	3742
42	3771
42	3805
42	3854
42	3856
42	3874
42	3900
42	3934
42	3937
42	3953
42	3962
42	3974
42	3989
42	4003
42	4056
42	4070
42	4079
42	4124
42	4207
42	4221
42	4247
42	4257
42	4380
42	4393
42	4394
42	4436
42	4454
42	4466
42	4479
42	4507
42	4554
42	4594
42	4609
42	4618
42	4631
42	4636
42	4658
42	4683
42	4688
42	4729
42	4730
42	4744
42	4771
42	4786
42	4820
42	4830
42	4850
42	4851
42	4899
42	4946
42	4982
42	4988
43	45
43	49
43	56
43	75
43	84
43	86
43	87
43	89
43	97
43	106
43	121
43	124
43	135
43	137
43	149
43	194
43	196
43	238
43	262
43	275
43	314
43	331
43	340
43	342
43	373
43	374
43	386
43	405
43	413
43	435
43	440
43	459
43	460
43	464
43	467
43	471
43	500
43	502
43	504
43	536
43	543
43	544
43	550
43	570
43	571
43	577
43	603
43	628
43	633
43	726
43	744
43	765
43	772
43	774
43	792
43	804
43	829
43	843
43	845
43	856
43	882
43	914
43	919
43	961
43	965
43	1016
43	1034
43	1071
43	1091
43	1127
43	1159
43	1188
43	1191
43	1245
43	1258
43	1268
43	1270
43	1279
43	1316
43	1322
43	1391
43	1404
43	1440
43	1478
43	1502
43	1547
43	1589
43	1602
43	1636
43	1652
43	1666
43	1679
43	1720
43	1740
43	1746
43	1759
43	1816
43	1885
43	1919
43	1968
43	1984
43	1993
43	2020
43	2024
43	2034
43	2035
43	2037
43	2055
43	2122
43	2144
43	2210
43	2228
43	2236
43	2305
43	2346
43	2402
43	2417
43	2425
43	2428
43	2431
43	2445
43	2491
43	2518
43	2523
43	2640
43	2659
43	2685
43	2711
43	2724
43	2749
43	2820
43	2842
43	2861
43	2903
43	2924
43	3039
43	3134
43	3242
43	3275
43	3340
43	3360
43	3417
43	3485
43	3540
43	3555
43	3640
43	3651
43	3734
43	3740
43	3766
43	3771
43	3806
43	3826
43	3828
43	3853
43	3861
43	3866
43	3923
43	4005
43	4053
43	4154
43	4175
43	4299
43	4452
43	4463
43	4481
43	4507
43	4586
43	4624
43	4655
43	4784
43	4795
43	4997
44	50
44	59
44	60
44	62
44	64
44	65
44	71
44	85
44	87
44	93
44	135
44	142
44	155
44	176
44	193
44	197
44	218
44	223
44	238
44	240
44	259
44	278
44	279
44	293
44	300
44	305
44	308
44	323
44	324
44	327
44	335
44	345
44	352
44	356
44	363
44	394
44	396
44	397
44	402
44	414
44	418
44	435
44	450
44	455
44	461
44	471
44	478
44	484
44	492
44	501
44	504
44	514
44	515
44	518
44	545
44	550
44	582
44	585
44	597
44	630
44	637
44	648
44	664
44	687
44	721
44	761
44	819
44	865
44	876
44	893
44	908
44	920
44	963
44	970
44	1012
44	1026
44	1028
44	1041
44	1064
44	1073
44	1120
44	1158
44	1167
44	1180
44	1216
44	1271
44	1308
44	1313
44	1353
44	1379
44	1382
44	1406
44	1418
44	1447
44	1458
44	1509
44	1537
44	1558
44	1585
44	1620
44	1680
44	1693
44	1747
44	1755
44	1787
44	1793
44	1811
44	1826
44	1828
44	1904
44	1905
44	1922
44	1931
44	2031
44	2168
44	2198
44	2207
44	2211
44	2218
44	2227
44	2361
44	2373
44	2378
44	2493
44	2586
44	2618
44	2651
44	2668
44	2676
44	2731
44	2796
44	2835
44	2849
44	2851
44	2860
44	2878
44	2905
44	2959
44	2974
44	3004
44	3022
44	3069
44	3091
44	3097
44	3101
44	3125
44	3150
44	3223
44	3366
44	3428
44	3449
44	3489
44	3506
44	3521
44	3585
44	3593
44	3616
44	3643
44	3646
44	3740
44	3834
44	3968
44	4051
44	4059
44	4094
44	4106
44	4145
44	4176
44	4221
44	4225
44	4267
44	4463
44	4519
44	4554
44	4604
44	4624
44	4675
44	4691
44	4707
44	4762
44	4829
44	4842
44	4843
44	4904
44	4958
45	47
45	50
45	52
45	53
45	56
45	58
45	60
45	61
45	74
45	81
45	83
45	92
45	93
45	105
45	109
45	114
45	122
45	125
45	128
45	131
45	134
45	135
45	139
45	158
45	162
45	165
45	167
45	171
45	173
45	189
45	200
45	203
45	205
45	214
45	221
45	233
45	259
45	274
45	284
45	314
45	323
45	338
45	364
45	369
45	375
45	395
45	400
45	436
45	438
45	440
45	489
45	533
45	536
45	554
45	567
45	595
45	598
45	601
45	608
45	623
45	653
45	664
45	679
45	686
45	694
45	746
45	762
45	779
45	792
45	793
45	846
45	853
45	863
45	865
45	876
45	879
45	937
45	1011
45	1022
45	1027
45	1033
45	1071
45	1138
45	1185
45	1219
45	1243
45	1244
45	1246
45	1260
45	1271
45	1272
45	1277
45	1278
45	1293
45	1319
45	1343
45	1345
45	1370
45	1396
45	1450
45	1465
45	1483
45	1484
45	1497
45	1524
45	1537
45	1552
45	1568
45	1570
45	1577
45	1610
45	1616
45	1631
45	1690
45	1705
45	1716
45	1751
45	1773
45	1777
45	1780
45	1873
45	1976
45	1994
45	2047
45	2056
45	2063
45	2074
45	2151
45	2170
45	2177
45	2284
45	2374
45	2377
45	2391
45	2404
45	2423
45	2474
45	2503
45	2504
45	2508
45	2573
45	2592
45	2612
45	2624
45	2627
45	2662
45	2714
45	2739
45	2749
45	2768
45	2854
45	2911
45	2914
45	2931
45	2937
45	2940
45	2942
45	2946
45	2953
45	2979
45	3004
45	3039
45	3061
45	3101
45	3102
45	3128
45	3136
45	3189
45	3216
45	3261
45	3313
45	3330
45	3346
45	3385
45	3431
45	3585
45	3627
45	3744
45	3749
45	3850
45	3858
45	3879
45	3914
45	3956
45	3965
45	4006
45	4011
45	4099
45	4100
45	4168
45	4273
45	4343
45	4350
45	4398
45	4456
45	4484
45	4564
45	4589
45	4645
45	4659
45	4667
45	4723
45	4733
45	4871
45	4954
46	47
46	50
46	51
46	60
46	62
46	63
46	65
46	70
46	74
46	81
46	87
46	99
46	111
46	122
46	128
46	149
46	153
46	163
46	164
46	176
46	185
46	187
46	196
46	201
46	225
46	266
46	286
46	294
46	319
46	387
46	393
46	403
46	417
46	429
46	432
46	439
46	453
46	481
46	542
46	552
46	576
46	586
46	594
46	632
46	645
46	647
46	690
46	706
46	765
46	826
46	904
46	931
46	942
46	951
46	1019
46	1034
46	1057
46	1101
46	1117
46	1118
46	1125
46	1127
46	1136
46	1156
46	1173
46	1198
46	1209
46	1213
46	1220
46	1270
46	1299
46	1379
46	1427
46	1468
46	1469
46	1548
46	1572
46	1646
46	1658
46	1725
46	1735
46	1744
46	1771
46	1786
46	1798
46	1859
46	1880
46	1906
46	1925
46	1932
46	1995
46	2029
46	2045
46	2059
46	2075
46	2162
46	2196
46	2229
46	2253
46	2283
46	2341
46	2365
46	2422
46	2469
46	2558
46	2560
46	2567
46	2606
46	2611
46	2637
46	2646
46	2662
46	2664
46	2683
46	2717
46	2725
46	2735
46	2738
46	2760
46	2796
46	2817
46	2819
46	2830
46	2853
46	2874
46	2885
46	2913
46	2977
46	3154
46	3224
46	3277
46	3293
46	3360
46	3378
46	3401
46	3439
46	3561
46	3699
46	3715
46	3740
46	3744
46	3756
46	3779
46	3793
46	3798
46	3943
46	3991
46	4003
46	4012
46	4032
46	4038
46	4053
46	4069
46	4104
46	4164
46	4281
46	4376
46	4405
46	4461
46	4488
46	4503
46	4561
46	4618
46	4648
46	4777
46	4898
46	4910
46	4917
47	49
47	51
47	55
47	66
47	75
47	80
47	83
47	87
47	95
47	111
47	116
47	117
47	119
47	143
47	169
47	174
47	195
47	216
47	226
47	231
47	239
47	241
47	260
47	262
47	271
47	361
47	370
47	380
47	404
47	428
47	437
47	462
47	465
47	480
47	506
47	519
47	522
47	581
47	590
47	608
47	614
47	642
47	652
47	658
47	665
47	719
47	749
47	759
47	765
47	773
47	783
47	819
47	824
47	825
47	828
47	879
47	940
47	1027
47	1053
47	1083
47	1099
47	1107
47	1145
47	1153
47	1246
47	1299
47	1308
47	1333
47	1336
47	1343
47	1400
47	1412
47	1425
47	1446
47	1463
47	1470
47	1505
47	1511
47	1563
47	1642
47	1649
47	1664
47	1690
47	1749
47	1767
47	1775
47	1792
47	1793
47	1803
47	1816
47	1823
47	1891
47	1958
47	2009
47	2024
47	2028
47	2058
47	2062
47	2111
47	2114
47	2144
47	2146
47	2172
47	2252
47	2357
47	2358
47	2416
47	2450
47	2504
47	2534
47	2540
47	2675
47	2687
47	2833
47	2883
47	2900
47	2938
47	2968
47	2982
47	3062
47	3066
47	3076
47	3077
47	3081
47	3162
47	3217
47	3270
47	3353
47	3383
47	3404
47	3567
47	3621
47	3673
47	3695
47	3697
47	3715
47	3764
47	3793
47	3813
47	3851
47	4082
47	4215
47	4400
47	4526
47	4629
47	4640
47	4736
47	4760
47	4786
47	4788
47	4817
47	4823
47	4881
48	50
48	51
48	52
48	54
48	55
48	58
48	60
48	62
48	69
48	71
48	72
48	73
48	76
48	77
48	80
48	90
48	105
48	113
48	135
48	141
48	151
48	167
48	192
48	203
48	209
48	213
48	215
48	219
48	241
48	255
48	259
48	266
48	271
48	276
48	283
48	306
48	314
48	321
48	336
48	350
48	359
48	372
48	373
48	408
48	431
48	446
48	454
48	466
48	475
48	530
48	533
48	541
48	568
48	569
48	621
48	637
48	676
48	678
48	681
48	685
48	699
48	701
48	733
48	755
48	765
48	780
48	787
48	788
48	798
48	834
48	845
48	879
48	880
48	886
48	942
48	959
48	981
48	1022
48	1026
48	1048
48	1084
48	1091
48	1142
48	1158
48	1177
48	1188
48	1222
48	1229
48	1286
48	1288
48	1308
48	1321
48	1348
48	1349
48	1357
48	1371
48	1385
48	1395
48	1412
48	1440
48	1446
48	1469
48	1471
48	1474
48	1524
48	1532
48	1570
48	1621
48	1627
48	1644
48	1672
48	1714
48	1774
48	1779
48	1792
48	1795
48	1810
48	1842
48	1878
48	1880
48	1935
48	1965
48	1976
48	2021
48	2051
48	2209
48	2222
48	2231
48	2274
48	2379
48	2395
48	2420
48	2443
48	2453
48	2479
48	2485
48	2507
48	2510
48	2540
48	2564
48	2614
48	2634
48	2655
48	2662
48	2736
48	2760
48	2789
48	2801
48	2850
48	2883
48	2912
48	2916
48	2966
48	2970
48	2987
48	3009
48	3015
48	3102
48	3164
48	3210
48	3213
48	3241
48	3269
48	3276
48	3302
48	3418
48	3421
48	3520
48	3619
48	3659
48	3691
48	3740
48	3755
48	3818
48	3822
48	3921
48	3955
48	3996
48	4057
48	4083
48	4090
48	4124
48	4207
48	4218
48	4255
48	4297
48	4321
48	4379
48	4453
48	4503
48	4515
48	4606
48	4660
48	4692
48	4767
48	4790
48	4995
49	65
49	66
49	67
49	91
49	97
49	101
49	107
49	115
49	119
49	120
49	121
49	137
49	166
49	209
49	212
49	217
49	227
49	229
49	233
49	256
49	289
49	293
49	304
49	305
49	324
49	341
49	347
49	366
49	384
49	386
49	390
49	480
49	492
49	494
49	499
49	513
49	518
49	565
49	568
49	580
49	582
49	593
49	597
49	609
49	628
49	642
49	649
49	691
49	705
49	740
49	796
49	826
49	854
49	912
49	917
49	940
49	952
49	970
49	1017
49	1077
49	1088
49	1113
49	1115
49	1153
49	1163
49	1189
49	1217
49	1221
49	1251
49	1289
49	1297
49	1328
49	1330
49	1336
49	1364
49	1371
49	1375
49	1406
49	1416
49	1482
49	1508
49	1514
49	1536
49	1569
49	1718
49	1755
49	1766
49	1784
49	1831
49	1850
49	1899
49	1905
49	1942
49	1980
49	1982
49	2002
49	2008
49	2044
49	2092
49	2097
49	2111
49	2125
49	2154
49	2163
49	2205
49	2206
49	2210
49	2216
49	2221
49	2294
49	2343
49	2348
49	2355
49	2419
49	2428
49	2460
49	2488
49	2499
49	2507
49	2627
49	2766
49	2767
49	2834
49	2868
49	2884
49	2938
49	3018
49	3023
49	3025
49	3042
49	3189
49	3225
49	3231
49	3253
49	3279
49	3287
49	3314
49	3451
49	3484
49	3502
49	3639
49	3660
49	3681
49	3698
49	3780
49	3898
49	3947
49	4033
49	4126
49	4187
49	4221
49	4347
49	4425
49	4442
49	4454
49	4478
49	4484
49	4521
49	4532
49	4536
49	4559
49	4591
49	4595
49	4635
49	4688
49	4698
49	4712
49	4749
49	4792
49	4905
49	4928
49	4975
50	53
50	56
50	69
50	129
50	212
50	218
50	237
50	242
50	253
50	269
50	296
50	322
50	334
50	449
50	496
50	506
50	520
50	558
50	566
50	622
50	699
50	706
50	714
50	802
50	804
50	810
50	905
50	1038
50	1128
50	1165
50	1234
50	1259
50	1286
50	1356
50	1395
50	1463
50	1502
50	1596
50	1708
50	1782
50	1887
50	1891
50	1922
50	1931
50	1939
50	1941
50	1945
50	1974
50	1990
50	1997
50	2050
50	2066
50	2088
50	2142
50	2147
50	2227
50	2236
50	2258
50	2512
50	2585
50	2730
50	3056
50	3068
50	3254
50	3359
50	3390
50	3480
50	3496
50	3686
50	3788
50	3834
50	3890
50	3896
50	3931
50	3941
50	4018
50	4037
50	4039
50	4173
50	4378
50	4409
50	4422
50	4425
50	4476
50	4493
50	4859
50	4936
50	4985
51	53
51	60
51	67
51	69
51	71
51	79
51	82
51	93
51	122
51	127
51	141
51	158
51	159
51	165
51	170
51	171
51	189
51	201
51	208
51	209
51	213
51	235
51	270
51	278
51	327
51	343
51	349
51	352
51	365
51	428
51	431
51	441
51	473
51	479
51	516
51	558
51	608
51	630
51	671
51	675
51	684
51	697
51	714
51	816
51	818
51	890
51	938
51	964
51	967
51	980
51	984
51	1018
51	1071
51	1250
51	1273
51	1320
51	1334
51	1337
51	1339
51	1400
51	1428
51	1439
51	1467
51	1468
51	1528
51	1555
51	1561
51	1563
51	1585
51	1640
51	1715
51	1810
51	1816
51	1838
51	1880
51	1960
51	1965
51	2002
51	2013
51	2176
51	2221
51	2223
51	2291
51	2334
51	2373
51	2451
51	2504
51	2542
51	2582
51	2641
51	2642
51	2696
51	2752
51	2794
51	2856
51	2872
51	2939
51	3084
51	3089
51	3107
51	3207
51	3237
51	3264
51	3426
51	3428
51	3459
51	3492
51	3551
51	3575
51	3712
51	3897
51	3955
51	4007
51	4041
51	4060
51	4145
51	4237
51	4368
51	4424
51	4442
51	4445
51	4451
51	4524
51	4560
51	4712
51	4728
51	4817
51	4834
51	4879
51	4912
52	54
52	57
52	61
52	63
52	65
52	66
52	68
52	70
52	78
52	86
52	87
52	90
52	98
52	100
52	101
52	102
52	103
52	105
52	107
52	109
52	116
52	121
52	122
52	123
52	134
52	146
52	153
52	154
52	156
52	167
52	172
52	173
52	177
52	183
52	185
52	187
52	189
52	191
52	196
52	198
52	202
52	222
52	233
52	246
52	261
52	264
52	267
52	277
52	303
52	308
52	313
52	316
52	319
52	330
52	339
52	342
52	355
52	358
52	382
52	383
52	388
52	402
52	468
52	471
52	476
52	480
52	490
52	557
52	585
52	591
52	598
52	609
52	613
52	627
52	645
52	660
52	677
52	679
52	689
52	694
52	697
52	709
52	710
52	731
52	768
52	769
52	785
52	819
52	858
52	869
52	882
52	885
52	903
52	906
52	920
52	997
52	1006
52	1078
52	1079
52	1084
52	1089
52	1090
52	1097
52	1121
52	1140
52	1142
52	1149
52	1179
52	1194
52	1215
52	1228
52	1233
52	1247
52	1248
52	1270
52	1318
52	1346
52	1367
52	1368
52	1387
52	1414
52	1429
52	1436
52	1471
52	1479
52	1494
52	1499
52	1507
52	1535
52	1558
52	1569
52	1572
52	1578
52	1604
52	1622
52	1632
52	1647
52	1668
52	1669
52	1676
52	1709
52	1744
52	1752
52	1757
52	1772
52	1875
52	1923
52	1928
52	1969
52	1979
52	2019
52	2042
52	2058
52	2100
52	2117
52	2127
52	2137
52	2152
52	2154
52	2156
52	2166
52	2190
52	2207
52	2260
52	2266
52	2279
52	2295
52	2317
52	2323
52	2335
52	2365
52	2406
52	2418
52	2436
52	2454
52	2457
52	2502
52	2551
52	2563
52	2655
52	2683
52	2702
52	2739
52	2745
52	2754
52	2781
52	2793
52	2812
52	2853
52	2879
52	2882
52	2886
52	2907
52	2945
52	2948
52	2954
52	2957
52	2965
52	3038
52	3158
52	3161
52	3190
52	3234
52	3286
52	3362
52	3412
52	3432
52	3434
52	3438
52	3459
52	3473
52	3508
52	3555
52	3557
52	3569
52	3570
52	3576
52	3577
52	3629
52	3634
52	3639
52	3679
52	3701
52	3716
52	3725
52	3761
52	3786
52	3822
52	3871
52	3875
52	3903
52	3914
52	3995
52	4014
52	4023
52	4031
52	4108
52	4232
52	4255
52	4273
52	4312
52	4344
52	4375
52	4410
52	4419
52	4426
52	4433
52	4475
52	4500
52	4506
52	4542
52	4580
52	4582
52	4622
52	4653
52	4670
52	4728
52	4772
52	4823
52	4861
52	4941
52	4973
53	57
53	59
53	70
53	73
53	75
53	76
53	83
53	96
53	98
53	99
53	105
53	106
53	107
53	111
53	113
53	115
53	129
53	135
53	141
53	174
53	182
53	194
53	196
53	202
53	205
53	210
53	211
53	228
53	229
53	235
53	240
53	249
53	251
53	253
53	257
53	263
53	292
53	294
53	299
53	301
53	318
53	329
53	350
53	352
53	355
53	364
53	365
53	373
53	376
53	387
53	402
53	411
53	417
53	444
53	450
53	485
53	502
53	513
53	521
53	531
53	533
53	543
53	571
53	576
53	620
53	626
53	627
53	643
53	652
53	684
53	702
53	705
53	708
53	727
53	736
53	745
53	747
53	762
53	770
53	776
53	793
53	817
53	832
53	838
53	848
53	854
53	862
53	880
53	881
53	882
53	925
53	952
53	967
53	974
53	1000
53	1008
53	1009
53	1027
53	1053
53	1068
53	1114
53	1126
53	1127
53	1135
53	1151
53	1168
53	1184
53	1207
53	1210
53	1218
53	1222
53	1282
53	1313
53	1405
53	1406
53	1422
53	1445
53	1471
53	1493
53	1503
53	1530
53	1542
53	1545
53	1551
53	1552
53	1614
53	1623
53	1635
53	1637
53	1672
53	1682
53	1702
53	1706
53	1708
53	1748
53	1752
53	1771
53	1837
53	1838
53	1868
53	1874
53	1906
53	1940
53	1963
53	1983
53	1998
53	2005
53	2014
53	2040
53	2083
53	2154
53	2171
53	2193
53	2196
53	2199
53	2212
53	2222
53	2228
53	2233
53	2259
53	2281
53	2324
53	2376
53	2397
53	2422
53	2443
53	2450
53	2462
53	2475
53	2486
53	2517
53	2545
53	2579
53	2596
53	2608
53	2674
53	2698
53	2708
53	2716
53	2741
53	2763
53	2783
53	2785
53	2810
53	2848
53	2876
53	2879
53	2895
53	2973
53	3013
53	3029
53	3068
53	3130
53	3148
53	3173
53	3210
53	3245
53	3256
53	3269
53	3312
53	3340
53	3351
53	3352
53	3394
53	3401
53	3407
53	3446
53	3461
53	3478
53	3492
53	3548
53	3561
53	3614
53	3647
53	3648
53	3698
53	3708
53	3749
53	3801
53	3813
53	3858
53	3906
53	3980
53	4061
53	4064
53	4096
53	4128
53	4148
53	4239
53	4275
53	4390
53	4397
53	4418
53	4421
53	4482
53	4528
53	4557
53	4596
53	4604
53	4684
53	4721
53	4732
53	4751
53	4775
53	4820
53	4823
53	4844
53	4870
53	4875
53	4918
54	62
54	67
54	73
54	78
54	79
54	82
54	83
54	97
54	99
54	101
54	117
54	130
54	131
54	138
54	139
54	141
54	154
54	157
54	160
54	163
54	166
54	174
54	186
54	187
54	188
54	196
54	209
54	211
54	216
54	310
54	318
54	324
54	327
54	351
54	412
54	436
54	458
54	482
54	487
54	518
54	579
54	596
54	658
54	677
54	729
54	766
54	777
54	797
54	814
54	862
54	946
54	961
54	992
54	1001
54	1019
54	1133
54	1141
54	1149
54	1163
54	1166
54	1215
54	1263
54	1293
54	1363
54	1411
54	1481
54	1483
54	1555
54	1563
54	1565
54	1567
54	1568
54	1585
54	1698
54	1725
54	1728
54	1732
54	1756
54	1785
54	1798
54	1810
54	1815
54	1840
54	1908
54	1913
54	1927
54	1977
54	2032
54	2041
54	2062
54	2092
54	2096
54	2098
54	2128
54	2148
54	2153
54	2175
54	2176
54	2198
54	2225
54	2244
54	2263
54	2309
54	2334
54	2361
54	2371
54	2443
54	2524
54	2535
54	2558
54	2575
54	2590
54	2611
54	2776
54	2785
54	2820
54	2822
54	2863
54	2873
54	2874
54	2946
54	2969
54	2972
54	3024
54	3100
54	3110
54	3143
54	3200
54	3220
54	3254
54	3258
54	3354
54	3356
54	3512
54	3601
54	3644
54	3726
54	3803
54	3837
54	3848
54	3853
54	3926
54	3927
54	3962
54	4031
54	4037
54	4160
54	4172
54	4195
54	4212
54	4358
54	4467
54	4658
54	4662
54	4705
54	4825
54	4880
54	4889
54	4896
55	56
55	58
55	59
55	60
55	62
55	66
55	72
55	77
55	80
55	89
55	107
55	111
55	130
55	139
55	149
55	163
55	170
55	178
55	193
55	194
55	230
55	240
55	245
55	246
55	251
55	260
55	261
55	274
55	300
55	303
55	305
55	306
55	311
55	312
55	316
55	325
55	363
55	381
55	383
55	397
55	421
55	425
55	446
55	467
55	492
55	503
55	507
55	510
55	534
55	569
55	615
55	628
55	763
55	782
55	803
55	825
55	827
55	853
55	871
55	923
55	1032
55	1090
55	1111
55	1180
55	1183
55	1185
55	1205
55	1230
55	1265
55	1276
55	1286
55	1302
55	1311
55	1312
55	1375
55	1468
55	1574
55	1587
55	1632
55	1721
55	1734
55	1741
55	1835
55	1847
55	1883
55	1886
55	1891
55	1933
55	1954
55	1956
55	2024
55	2066
55	2096
55	2162
55	2191
55	2243
55	2245
55	2266
55	2273
55	2279
55	2313
55	2366
55	2380
55	2388
55	2485
55	2520
55	2536
55	2542
55	2584
55	2636
55	2649
55	2751
55	2804
55	2843
55	2894
55	2899
55	2908
55	2961
55	3066
55	3073
55	3121
55	3167
55	3197
55	3206
55	3294
55	3384
55	3400
55	3462
55	3467
55	3470
55	3595
55	3601
55	3606
55	3684
55	3695
55	3782
55	3810
55	3811
55	3856
55	3902
55	3911
55	3929
55	3932
55	3969
55	4004
55	4006
55	4070
55	4082
55	4167
55	4239
55	4251
55	4264
55	4270
55	4543
55	4571
55	4577
55	4645
55	4714
55	4789
55	4795
55	4831
55	4949
55	4952
55	4955
56	57
56	64
56	69
56	73
56	84
56	124
56	131
56	135
56	161
56	175
56	222
56	224
56	238
56	239
56	265
56	330
56	337
56	353
56	467
56	544
56	548
56	551
56	570
56	576
56	662
56	687
56	744
56	791
56	834
56	848
56	850
56	857
56	873
56	892
56	921
56	924
56	943
56	956
56	966
56	978
56	1003
56	1005
56	1018
56	1085
56	1133
56	1155
56	1174
56	1176
56	1232
56	1233
56	1378
56	1415
56	1437
56	1448
56	1494
56	1502
56	1589
56	1703
56	1707
56	1734
56	1765
56	1769
56	1882
56	1951
56	1984
56	2065
56	2087
56	2098
56	2130
56	2142
56	2166
56	2171
56	2217
56	2297
56	2308
56	2420
56	2444
56	2456
56	2472
56	2474
56	2515
56	2583
56	2640
56	2716
56	2780
56	2871
56	3021
56	3060
56	3126
56	3129
56	3155
56	3171
56	3247
56	3248
56	3274
56	3308
56	3391
56	3407
56	3453
56	3515
56	3585
56	3615
56	3617
56	3760
56	3765
56	3830
56	3938
56	4145
56	4163
56	4171
56	4185
56	4218
56	4364
56	4383
56	4425
56	4563
56	4580
56	4586
56	4686
56	4741
56	4813
56	4835
56	4897
56	4917
57	58
57	64
57	70
57	71
57	78
57	91
57	92
57	95
57	98
57	120
57	128
57	131
57	140
57	142
57	148
57	174
57	176
57	208
57	224
57	229
57	235
57	245
57	263
57	272
57	290
57	295
57	310
57	335
57	338
57	355
57	363
57	364
57	383
57	388
57	395
57	404
57	430
57	446
57	452
57	453
57	460
57	463
57	464
57	482
57	487
57	513
57	550
57	556
57	586
57	602
57	605
57	672
57	673
57	702
57	704
57	717
57	720
57	736
57	746
57	755
57	792
57	811
57	814
57	824
57	842
57	857
57	881
57	909
57	927
57	949
57	954
57	994
57	1039
57	1071
57	1081
57	1094
57	1260
57	1265
57	1278
57	1284
57	1306
57	1336
57	1339
57	1370
57	1382
57	1411
57	1418
57	1439
57	1468
57	1469
57	1521
57	1571
57	1595
57	1624
57	1636
57	1642
57	1648
57	1651
57	1701
57	1790
57	1819
57	1929
57	1935
57	1943
57	1965
57	2004
57	2039
57	2064
57	2071
57	2088
57	2097
57	2169
57	2180
57	2210
57	2223
57	2256
57	2385
57	2397
57	2401
57	2505
57	2542
57	2567
57	2588
57	2614
57	2692
57	2757
57	2841
57	2854
57	2947
57	2987
57	3051
57	3145
57	3227
57	3244
57	3279
57	3281
57	3324
57	3377
57	3438
57	3473
57	3478
57	3538
57	3540
57	3651
57	3676
57	3721
57	3729
57	3736
57	3764
57	3921
57	3952
57	4014
57	4085
57	4215
57	4262
57	4282
57	4284
57	4568
57	4684
57	4743
57	4745
57	4859
57	4972
58	74
58	75
58	83
58	89
58	104
58	114
58	124
58	125
58	130
58	140
58	143
58	161
58	197
58	211
58	232
58	249
58	262
58	285
58	337
58	345
58	347
58	357
58	365
58	366
58	370
58	375
58	387
58	439
58	453
58	455
58	463
58	485
58	486
58	520
58	615
58	623
58	702
58	720
58	726
58	740
58	784
58	785
58	842
58	846
58	882
58	930
58	936
58	945
58	969
58	983
58	998
58	1027
58	1041
58	1054
58	1095
58	1151
58	1181
58	1208
58	1294
58	1355
58	1415
58	1457
58	1510
58	1543
58	1610
58	1653
58	1680
58	1741
58	1770
58	1795
58	1806
58	1987
58	2022
58	2113
58	2199
58	2239
58	2251
58	2325
58	2373
58	2569
58	2637
58	2647
58	2841
58	2862
58	2929
58	3086
58	3133
58	3151
58	3162
58	3252
58	3359
58	3371
58	3602
58	3619
58	3646
58	3823
58	3860
58	3960
58	4128
58	4165
58	4290
58	4310
58	4438
58	4502
58	4582
58	4604
58	4626
58	4655
58	4676
58	4769
58	4818
58	4873
58	4983
59	63
59	65
59	69
59	70
59	76
59	87
59	94
59	97
59	104
59	108
59	124
59	127
59	142
59	148
59	154
59	159
59	163
59	193
59	195
59	197
59	206
59	218
59	221
59	227
59	238
59	253
59	259
59	263
59	283
59	301
59	321
59	330
59	372
59	396
59	442
59	474
59	504
59	512
59	559
59	589
59	592
59	622
59	648
59	656
59	660
59	747
59	750
59	754
59	802
59	848
59	850
59	899
59	900
59	981
59	989
59	1014
59	1016
59	1125
59	1160
59	1185
59	1203
59	1224
59	1277
59	1332
59	1347
59	1371
59	1393
59	1406
59	1415
59	1418
59	1504
59	1518
59	1568
59	1614
59	1617
59	1622
59	1641
59	1649
59	1667
59	1710
59	1791
59	1807
59	1848
59	1856
59	1859
59	1925
59	1937
59	1978
59	2056
59	2076
59	2100
59	2126
59	2139
59	2323
59	2359
59	2369
59	2388
59	2389
59	2407
59	2428
59	2462
59	2532
59	2710
59	2771
59	2822
59	2844
59	2855
59	2955
59	2973
59	3060
59	3104
59	3134
59	3187
59	3217
59	3226
59	3326
59	3397
59	3426
59	3545
59	3601
59	3687
59	3696
59	3732
59	3736
59	3738
59	3780
59	3845
59	3882
59	3963
59	3966
59	4016
59	4018
59	4028
59	4037
59	4091
59	4100
59	4200
59	4203
59	4225
59	4246
59	4263
59	4290
59	4378
59	4476
59	4503
59	4587
59	4610
59	4682
59	4822
59	4991
60	61
60	62
60	74
60	80
60	82
60	86
60	106
60	107
60	110
60	114
60	139
60	144
60	149
60	160
60	173
60	176
60	188
60	203
60	204
60	205
60	208
60	211
60	227
60	229
60	241
60	244
60	258
60	262
60	271
60	288
60	298
60	335
60	336
60	339
60	342
60	348
60	355
60	357
60	383
60	398
60	399
60	401
60	406
60	419
60	421
60	432
60	447
60	471
60	481
60	532
60	554
60	600
60	609
60	611
60	618
60	628
60	633
60	642
60	655
60	699
60	700
60	723
60	745
60	782
60	802
60	815
60	840
60	881
60	900
60	918
60	925
60	928
60	973
60	975
60	994
60	1002
60	1014
60	1036
60	1069
60	1074
60	1095
60	1142
60	1143
60	1146
60	1159
60	1188
60	1210
60	1231
60	1233
60	1245
60	1247
60	1280
60	1296
60	1298
60	1309
60	1316
60	1328
60	1354
60	1355
60	1378
60	1379
60	1445
60	1459
60	1587
60	1589
60	1624
60	1702
60	1733
60	1737
60	1766
60	1768
60	1777
60	1793
60	1837
60	1849
60	1906
60	1919
60	1926
60	1954
60	2006
60	2134
60	2166
60	2173
60	2179
60	2208
60	2267
60	2298
60	2333
60	2380
60	2391
60	2406
60	2407
60	2420
60	2454
60	2459
60	2481
60	2660
60	2738
60	2783
60	2852
60	2877
60	3021
60	3052
60	3092
60	3120
60	3262
60	3267
60	3272
60	3309
60	3360
60	3389
60	3466
60	3511
60	3519
60	3607
60	3639
60	3648
60	3657
60	3688
60	3712
60	3721
60	3830
60	3835
60	3893
60	3905
60	3927
60	4011
60	4049
60	4060
60	4161
60	4162
60	4178
60	4280
60	4299
60	4313
60	4341
60	4372
60	4427
60	4451
60	4514
60	4550
60	4620
60	4635
60	4637
60	4681
60	4687
60	4761
60	4801
61	71
61	73
61	76
61	94
61	104
61	109
61	119
61	123
61	133
61	165
61	180
61	247
61	266
61	277
61	281
61	285
61	288
61	338
61	385
61	399
61	400
61	402
61	421
61	424
61	466
61	498
61	519
61	529
61	578
61	607
61	612
61	665
61	762
61	788
61	851
61	865
61	866
61	903
61	934
61	999
61	1042
61	1043
61	1118
61	1148
61	1158
61	1159
61	1290
61	1300
61	1335
61	1545
61	1605
61	1650
61	1704
61	1716
61	1762
61	1789
61	1939
61	2121
61	2273
61	2334
61	2400
61	2413
61	2493
61	2635
61	2693
61	2718
61	2750
61	2797
61	2858
61	2861
61	2905
61	3038
61	3100
61	3154
61	3207
61	3295
61	3345
61	3396
61	3469
61	3510
61	3637
61	3691
61	3711
61	3769
61	3808
61	3858
61	3896
61	3950
61	3993
61	4037
61	4242
61	4285
61	4347
61	4459
61	4666
61	4702
61	4788
61	4891
62	64
62	68
62	76
62	81
62	92
62	93
62	96
62	100
62	102
62	107
62	110
62	113
62	125
62	127
62	145
62	151
62	157
62	159
62	169
62	174
62	175
62	180
62	185
62	197
62	205
62	212
62	216
62	226
62	229
62	247
62	249
62	251
62	253
62	255
62	256
62	268
62	274
62	285
62	291
62	293
62	295
62	320
62	322
62	332
62	339
62	371
62	377
62	408
62	409
62	426
62	430
62	441
62	454
62	460
62	477
62	484
62	505
62	510
62	518
62	520
62	530
62	532
62	534
62	568
62	589
62	594
62	601
62	608
62	611
62	621
62	653
62	662
62	673
62	679
62	681
62	691
62	711
62	724
62	732
62	751
62	757
62	761
62	766
62	773
62	789
62	797
62	798
62	834
62	842
62	884
62	886
62	899
62	900
62	909
62	927
62	928
62	956
62	958
62	965
62	967
62	987
62	1003
62	1009
62	1038
62	1044
62	1049
62	1089
62	1092
62	1096
62	1112
62	1129
62	1164
62	1187
62	1194
62	1208
62	1213
62	1223
62	1233
62	1251
62	1288
62	1319
62	1366
62	1402
62	1412
62	1419
62	1428
62	1431
62	1471
62	1490
62	1496
62	1513
62	1525
62	1531
62	1593
62	1656
62	1662
62	1665
62	1668
62	1676
62	1686
62	1715
62	1746
62	1758
62	1761
62	1763
62	1774
62	1794
62	1801
62	1854
62	1860
62	1862
62	1927
62	2001
62	2009
62	2053
62	2063
62	2067
62	2073
62	2111
62	2147
62	2151
62	2177
62	2199
62	2204
62	2296
62	2350
62	2362
62	2536
62	2566
62	2570
62	2579
62	2612
62	2626
62	2680
62	2681
62	2705
62	2730
62	2753
62	2776
62	2821
62	2822
62	2826
62	2843
62	2867
62	2957
62	2962
62	2974
62	3004
62	3010
62	3012
62	3017
62	3036
62	3071
62	3076
62	3176
62	3234
62	3243
62	3285
62	3340
62	3353
62	3359
62	3430
62	3438
62	3450
62	3473
62	3562
62	3623
62	3624
62	3625
62	3671
62	3786
62	3802
62	3831
62	3947
62	3975
62	4108
62	4151
62	4165
62	4182
62	4209
62	4218
62	4280
62	4314
62	4353
62	4369
62	4477
62	4526
62	4538
62	4548
62	4589
62	4614
62	4664
62	4686
62	4737
62	4757
62	4759
62	4814
62	4827
62	4879
62	4892
63	65
63	85
63	87
63	119
63	122
63	166
63	178
63	181
63	186
63	190
63	230
63	231
63	246
63	256
63	267
63	291
63	300
63	314
63	340
63	350
63	369
63	379
63	400
63	401
63	431
63	440
63	456
63	496
63	511
63	554
63	561
63	576
63	581
63	604
63	616
63	624
63	636
63	639
63	645
63	661
63	674
63	723
63	756
63	764
63	777
63	802
63	833
63	836
63	873
63	891
63	895
63	901
63	904
63	934
63	936
63	956
63	965
63	971
63	996
63	1005
63	1059
63	1082
63	1186
63	1242
63	1399
63	1407
63	1418
63	1468
63	1473
63	1488
63	1554
63	1563
63	1566
63	1634
63	1688
63	1692
63	1756
63	1769
63	1784
63	1858
63	1892
63	1911
63	1997
63	2038
63	2040
63	2132
63	2164
63	2224
63	2240
63	2242
63	2248
63	2281
63	2328
63	2368
63	2372
63	2423
63	2553
63	2608
63	2629
63	2636
63	2675
63	2752
63	2772
63	2847
63	2944
63	2995
63	3101
63	3135
63	3207
63	3226
63	3301
63	3394
63	3413
63	3433
63	3446
63	3490
63	3514
63	3535
63	3580
63	3716
63	3766
63	3784
63	3786
63	3834
63	3868
63	4060
63	4087
63	4165
63	4189
63	4264
63	4284
63	4357
63	4472
63	4480
63	4511
63	4546
63	4721
63	4832
63	4842
63	4882
63	4980
64	67
64	79
64	85
64	102
64	105
64	108
64	110
64	126
64	144
64	145
64	147
64	155
64	160
64	174
64	183
64	196
64	202
64	239
64	243
64	257
64	261
64	278
64	308
64	328
64	346
64	367
64	380
64	381
64	404
64	418
64	421
64	465
64	485
64	493
64	511
64	553
64	566
64	567
64	588
64	614
64	623
64	627
64	634
64	661
64	676
64	681
64	683
64	703
64	752
64	755
64	780
64	805
64	839
64	850
64	891
64	913
64	926
64	931
64	933
64	960
64	967
64	989
64	1007
64	1080
64	1087
64	1103
64	1130
64	1198
64	1214
64	1234
64	1246
64	1269
64	1339
64	1388
64	1394
64	1437
64	1441
64	1495
64	1507
64	1583
64	1584
64	1599
64	1616
64	1618
64	1644
64	1660
64	1677
64	1682
64	1704
64	1757
64	1781
64	1812
64	1942
64	1997
64	2013
64	2016
64	2023
64	2054
64	2075
64	2080
64	2127
64	2192
64	2220
64	2335
64	2373
64	2377
64	2391
64	2457
64	2591
64	2680
64	2862
64	2928
64	2933
64	3008
64	3049
64	3065
64	3086
64	3107
64	3158
64	3176
64	3183
64	3323
64	3339
64	3342
64	3350
64	3368
64	3410
64	3541
64	3601
64	3617
64	3744
64	3768
64	3827
64	3830
64	3840
64	3848
64	3854
64	3879
64	3927
64	3966
64	4006
64	4008
64	4038
64	4050
64	4108
64	4284
64	4411
64	4532
64	4618
64	4646
64	4701
64	4730
64	4742
64	4774
64	4833
64	4912
64	4922
64	4984
65	66
65	68
65	71
65	76
65	77
65	80
65	84
65	85
65	91
65	95
65	105
65	112
65	114
65	119
65	126
65	127
65	130
65	137
65	140
65	142
65	146
65	149
65	150
65	157
65	159
65	184
65	198
65	199
65	202
65	229
65	267
65	282
65	296
65	302
65	307
65	341
65	353
65	356
65	367
65	388
65	423
65	428
65	435
65	439
65	447
65	480
65	495
65	499
65	503
65	517
65	522
65	523
65	531
65	584
65	594
65	610
65	613
65	620
65	646
65	727
65	734
65	771
65	777
65	789
65	803
65	810
65	832
65	860
65	871
65	888
65	889
65	936
65	949
65	980
65	1020
65	1024
65	1033
65	1039
65	1084
65	1133
65	1166
65	1176
65	1183
65	1202
65	1206
65	1255
65	1264
65	1300
65	1310
65	1340
65	1352
65	1362
65	1385
65	1389
65	1437
65	1460
65	1473
65	1474
65	1506
65	1533
65	1559
65	1573
65	1608
65	1668
65	1699
65	1724
65	1727
65	1755
65	1882
65	1887
65	1902
65	1935
65	1936
65	1961
65	1970
65	2009
65	2043
65	2067
65	2085
65	2127
65	2145
65	2338
65	2353
65	2359
65	2364
65	2443
65	2453
65	2483
65	2555
65	2642
65	2653
65	2662
65	2745
65	2750
65	2800
65	2885
65	2956
65	2974
65	3009
65	3123
65	3175
65	3216
65	3219
65	3340
65	3366
65	3373
65	3399
65	3458
65	3478
65	3485
65	3497
65	3575
65	3582
65	3636
65	3642
65	3672
65	3689
65	3692
65	3763
65	3814
65	3821
65	3846
65	3872
65	3963
65	3965
65	3972
65	3992
65	4023
65	4029
65	4063
65	4077
65	4126
65	4165
65	4342
65	4356
65	4398
65	4447
65	4468
65	4515
65	4535
65	4679
65	4728
65	4729
65	4757
65	4767
65	4779
65	4793
65	4804
65	4807
65	4811
65	4910
65	4986
66	71
66	78
66	98
66	103
66	111
66	172
66	220
66	263
66	302
66	402
66	502
66	509
66	540
66	544
66	571
66	747
66	779
66	796
66	881
66	884
66	952
66	993
66	1094
66	1096
66	1202
66	1322
66	1420
66	1494
66	1574
66	1604
66	1720
66	1774
66	1851
66	2127
66	2204
66	2249
66	2427
66	2487
66	2541
66	2596
66	2699
66	2989
66	3012
66	3158
66	3393
66	3394
66	3407
66	3644
66	3653
66	3673
66	3729
66	3839
66	3897
66	3908
66	4243
66	4443
66	4489
66	4530
66	4825
66	4988
67	68
67	77
67	79
67	86
67	105
67	106
67	114
67	119
67	123
67	125
67	128
67	145
67	149
67	153
67	158
67	159
67	163
67	175
67	189
67	204
67	228
67	236
67	264
67	271
67	281
67	285
67	298
67	303
67	327
67	340
67	359
67	361
67	385
67	412
67	421
67	429
67	491
67	521
67	522
67	552
67	575
67	589
67	590
67	601
67	624
67	645
67	660
67	661
67	675
67	678
67	687
67	704
67	713
67	730
67	754
67	768
67	832
67	843
67	917
67	982
67	1043
67	1112
67	1166
67	1176
67	1178
67	1204
67	1206
67	1235
67	1237
67	1260
67	1299
67	1340
67	1346
67	1375
67	1376
67	1386
67	1432
67	1457
67	1503
67	1534
67	1564
67	1717
67	1774
67	1789
67	1801
67	1802
67	1817
67	1850
67	1853
67	1861
67	1888
67	1896
67	1901
67	1916
67	1917
67	1918
67	1926
67	1948
67	1955
67	2027
67	2057
67	2071
67	2102
67	2162
67	2170
67	2182
67	2186
67	2220
67	2280
67	2301
67	2305
67	2314
67	2316
67	2365
67	2390
67	2430
67	2436
67	2439
67	2440
67	2461
67	2463
67	2560
67	2569
67	2712
67	2764
67	2794
67	2795
67	2806
67	2958
67	2995
67	3087
67	3098
67	3123
67	3196
67	3205
67	3214
67	3219
67	3357
67	3481
67	3489
67	3611
67	3664
67	3772
67	3803
67	3829
67	3877
67	3889
67	3913
67	3932
67	3942
67	3943
67	3966
67	3975
67	3980
67	4134
67	4207
67	4274
67	4357
67	4459
67	4506
67	4535
67	4699
67	4771
67	4800
67	4938
67	4943
67	4991
67	4999
68	78
68	79
68	82
68	97
68	107
68	143
68	146
68	148
68	159
68	170
68	175
68	198
68	199
68	200
68	243
68	245
68	300
68	309
68	328
68	363
68	367
68	386
68	440
68	454
68	474
68	503
68	510
68	532
68	556
68	615
68	616
68	620
68	636
68	712
68	717
68	792
68	836
68	853
68	935
68	952
68	958
68	1021
68	1074
68	1123
68	1125
68	1168
68	1237
68	1288
68	1324
68	1336
68	1364
68	1511
68	1519
68	1522
68	1527
68	1544
68	1697
68	1742
68	1763
68	1876
68	1881
68	1907
68	1964
68	1979
68	2033
68	2059
68	2074
68	2477
68	2497
68	2531
68	2538
68	2649
68	2707
68	2727
68	2802
68	2832
68	2965
68	3113
68	3115
68	3294
68	3352
68	3356
68	3380
68	3494
68	3529
68	3653
68	3680
68	3689
68	3715
68	3861
68	3877
68	3909
68	4030
68	4056
68	4165
68	4360
68	4419
68	4513
68	4597
68	4610
68	4649
68	4749
68	4752
68	4829
68	4830
68	4881
68	4930
68	4988
69	74
69	77
69	81
69	82
69	89
69	94
69	99
69	122
69	145
69	147
69	157
69	190
69	191
69	231
69	232
69	265
69	281
69	283
69	301
69	328
69	345
69	359
69	360
69	380
69	384
69	399
69	400
69	411
69	421
69	431
69	461
69	476
69	495
69	512
69	528
69	565
69	569
69	581
69	613
69	631
69	644
69	653
69	686
69	710
69	713
69	721
69	775
69	782
69	791
69	851
69	946
69	952
69	976
69	983
69	999
69	1013
69	1102
69	1114
69	1131
69	1140
69	1181
69	1253
69	1286
69	1352
69	1399
69	1480
69	1489
69	1528
69	1604
69	1614
69	1692
69	1711
69	1744
69	1759
69	1762
69	1818
69	1957
69	2014
69	2126
69	2141
69	2153
69	2174
69	2186
69	2252
69	2268
69	2291
69	2454
69	2476
69	2486
69	2500
69	2546
69	2703
69	2725
69	2746
69	2760
69	2944
69	2960
69	3076
69	3135
69	3157
69	3158
69	3187
69	3194
69	3310
69	3530
69	3535
69	3696
69	3712
69	3791
69	3803
69	3861
69	3950
69	4120
69	4181
69	4199
69	4207
69	4233
69	4262
69	4331
69	4337
69	4376
69	4594
69	4609
69	4689
69	4796
69	4882
69	4944
69	4948
69	4975
70	84
70	85
70	105
70	133
70	141
70	152
70	156
70	161
70	171
70	173
70	175
70	224
70	280
70	311
70	313
70	315
70	338
70	349
70	373
70	374
70	377
70	387
70	410
70	413
70	418
70	443
70	493
70	508
70	523
70	546
70	551
70	605
70	614
70	638
70	669
70	676
70	735
70	745
70	767
70	807
70	896
70	950
70	1006
70	1043
70	1092
70	1098
70	1167
70	1175
70	1265
70	1336
70	1342
70	1345
70	1364
70	1382
70	1425
70	1426
70	1427
70	1454
70	1613
70	1658
70	1676
70	1695
70	1891
70	1952
70	2037
70	2092
70	2160
70	2242
70	2331
70	2409
70	2418
70	2435
70	2454
70	2513
70	2539
70	2542
70	2552
70	2555
70	2576
70	2598
70	2616
70	2685
70	2714
70	2723
70	2781
70	2830
70	2879
70	3019
70	3184
70	3224
70	3226
70	3232
70	3413
70	3424
70	3436
70	3467
70	3493
70	3644
70	3666
70	3688
70	3707
70	3777
70	3802
70	4030
70	4093
70	4307
70	4324
70	4394
70	4494
70	4508
70	4955
71	76
71	77
71	80
71	85
71	90
71	96
71	114
71	115
71	117
71	138
71	139
71	150
71	153
71	154
71	181
71	204
71	206
71	208
71	221
71	239
71	266
71	302
71	303
71	311
71	317
71	322
71	353
71	366
71	386
71	389
71	414
71	434
71	456
71	476
71	517
71	524
71	540
71	545
71	582
71	588
71	631
71	641
71	652
71	670
71	687
71	742
71	747
71	809
71	830
71	883
71	956
71	1033
71	1101
71	1114
71	1125
71	1158
71	1229
71	1272
71	1309
71	1322
71	1340
71	1378
71	1437
71	1461
71	1482
71	1508
71	1513
71	1522
71	1582
71	1655
71	1709
71	1719
71	1780
71	1831
71	1837
71	1863
71	1896
71	1922
71	1968
71	1970
71	2050
71	2085
71	2116
71	2185
71	2199
71	2208
71	2213
71	2274
71	2276
71	2442
71	2565
71	2580
71	2641
71	2712
71	2733
71	2836
71	3039
71	3114
71	3127
71	3173
71	3181
71	3205
71	3234
71	3253
71	3256
71	3329
71	3388
71	3432
71	3456
71	3561
71	3608
71	3627
71	3719
71	3722
71	3758
71	3836
71	3857
71	4010
71	4013
71	4057
71	4130
71	4152
71	4375
71	4392
71	4418
71	4434
71	4582
71	4652
71	4691
71	4723
71	4765
71	4799
71	4866
71	4881
71	4989
72	75
72	81
72	92
72	95
72	108
72	116
72	123
72	156
72	164
72	172
72	181
72	205
72	212
72	270
72	271
72	279
72	286
72	300
72	324
72	341
72	362
72	387
72	389
72	403
72	430
72	431
72	445
72	455
72	492
72	514
72	556
72	564
72	588
72	627
72	631
72	664
72	721
72	730
72	735
72	805
72	859
72	964
72	990
72	993
72	1016
72	1117
72	1126
72	1136
72	1208
72	1308
72	1318
72	1350
72	1359
72	1376
72	1378
72	1479
72	1489
72	1546
72	1736
72	1759
72	1781
72	1803
72	1811
72	1819
72	1984
72	2007
72	2010
72	2051
72	2065
72	2148
72	2160
72	2206
72	2224
72	2229
72	2297
72	2357
72	2377
72	2423
72	2445
72	2483
72	2546
72	2701
72	2734
72	2878
72	2930
72	3034
72	3082
72	3117
72	3259
72	3341
72	3365
72	3434
72	3705
72	3816
72	3907
72	3916
72	4159
72	4164
72	4188
72	4272
72	4275
72	4289
72	4354
72	4393
72	4401
72	4457
72	4497
72	4510
72	4530
72	4561
72	4596
72	4630
72	4759
72	4762
72	4995
73	81
73	90
73	91
73	93
73	96
73	97
73	98
73	106
73	117
73	118
73	123
73	138
73	141
73	144
73	153
73	169
73	191
73	199
73	223
73	240
73	245
73	275
73	284
73	310
73	316
73	368
73	374
73	380
73	388
73	399
73	405
73	408
73	416
73	445
73	449
73	464
73	475
73	485
73	488
73	551
73	557
73	562
73	607
73	671
73	681
73	713
73	719
73	730
73	732
73	772
73	794
73	815
73	888
73	895
73	910
73	932
73	955
73	985
73	1028
73	1071
73	1125
73	1137
73	1149
73	1160
73	1187
73	1233
73	1265
73	1290
73	1307
73	1349
73	1420
73	1455
73	1467
73	1498
73	1506
73	1545
73	1548
73	1623
73	1634
73	1678
73	1694
73	1712
73	1719
73	1727
73	1814
73	1867
73	1869
73	1930
73	2006
73	2046
73	2049
73	2070
73	2089
73	2133
73	2263
73	2280
73	2309
73	2380
73	2406
73	2458
73	2686
73	2911
73	2927
73	3106
73	3273
73	3343
73	3453
73	3475
73	3511
73	3530
73	3619
73	3812
73	3837
73	3950
73	4132
73	4244
73	4271
73	4299
73	4320
73	4557
73	4597
73	4663
73	4664
73	4732
73	4742
73	4782
73	4788
73	4916
73	4948
73	4994
73	4999
74	80
74	98
74	99
74	105
74	110
74	113
74	116
74	122
74	124
74	126
74	160
74	161
74	162
74	164
74	177
74	193
74	206
74	216
74	248
74	249
74	251
74	252
74	287
74	344
74	417
74	419
74	429
74	430
74	457
74	460
74	509
74	510
74	520
74	537
74	579
74	591
74	645
74	650
74	672
74	717
74	743
74	749
74	778
74	841
74	858
74	932
74	986
74	988
74	994
74	995
74	1062
74	1077
74	1084
74	1180
74	1197
74	1228
74	1279
74	1295
74	1299
74	1322
74	1339
74	1398
74	1417
74	1483
74	1514
74	1556
74	1583
74	1595
74	1662
74	1722
74	1761
74	1769
74	1782
74	1810
74	1811
74	1965
74	2064
74	2105
74	2110
74	2230
74	2239
74	2469
74	2483
74	2516
74	2547
74	2555
74	2595
74	2623
74	2693
74	3005
74	3034
74	3058
74	3109
74	3149
74	3165
74	3206
74	3395
74	3551
74	3709
74	3753
74	3798
74	4015
74	4067
74	4076
74	4112
74	4139
74	4165
74	4250
74	4252
74	4280
74	4345
74	4348
74	4540
74	4541
74	4600
74	4662
74	4727
74	4736
74	4786
74	4864
74	4948
75	85
75	89
75	111
75	124
75	125
75	127
75	129
75	130
75	155
75	159
75	166
75	194
75	201
75	231
75	242
75	254
75	255
75	281
75	299
75	303
75	314
75	322
75	348
75	402
75	429
75	442
75	468
75	478
75	506
75	515
75	566
75	567
75	572
75	595
75	618
75	628
75	646
75	665
75	678
75	706
75	713
75	829
75	831
75	839
75	861
75	997
75	1009
75	1045
75	1051
75	1060
75	1152
75	1183
75	1212
75	1233
75	1260
75	1264
75	1307
75	1320
75	1445
75	1466
75	1496
75	1512
75	1611
75	1618
75	1660
75	1721
75	1741
75	1774
75	1796
75	1848
75	1850
75	1902
75	1913
75	1936
75	1939
75	2014
75	2024
75	2110
75	2162
75	2181
75	2209
75	2284
75	2304
75	2320
75	2333
75	2406
75	2561
75	2580
75	2625
75	2677
75	2953
75	3007
75	3040
75	3087
75	3112
75	3159
75	3218
75	3284
75	3289
75	3323
75	3327
75	3385
75	3390
75	3409
75	3495
75	3507
75	3525
75	3534
75	3546
75	3611
75	3650
75	3718
75	3787
75	3793
75	3810
75	3828
75	3871
75	4001
75	4077
75	4081
75	4083
75	4122
75	4256
75	4289
75	4309
75	4317
75	4622
75	4663
75	4838
76	77
76	78
76	84
76	88
76	90
76	92
76	94
76	103
76	104
76	113
76	118
76	129
76	139
76	156
76	162
76	170
76	174
76	179
76	193
76	202
76	206
76	216
76	224
76	236
76	261
76	268
76	273
76	278
76	281
76	286
76	287
76	299
76	303
76	304
76	320
76	326
76	337
76	341
76	361
76	375
76	378
76	419
76	422
76	442
76	449
76	455
76	462
76	470
76	500
76	523
76	541
76	548
76	557
76	568
76	585
76	660
76	669
76	672
76	686
76	715
76	722
76	762
76	823
76	826
76	878
76	885
76	928
76	934
76	972
76	998
76	1003
76	1038
76	1075
76	1112
76	1129
76	1169
76	1199
76	1283
76	1307
76	1308
76	1350
76	1391
76	1400
76	1414
76	1432
76	1450
76	1483
76	1566
76	1568
76	1571
76	1586
76	1587
76	1647
76	1657
76	1660
76	1681
76	1682
76	1687
76	1688
76	1702
76	1704
76	1709
76	1773
76	1785
76	1851
76	1915
76	1951
76	1962
76	1967
76	1977
76	1996
76	2058
76	2082
76	2086
76	2088
76	2098
76	2142
76	2204
76	2209
76	2245
76	2270
76	2275
76	2354
76	2361
76	2371
76	2386
76	2387
76	2500
76	2533
76	2690
76	2695
76	2698
76	2811
76	2813
76	2931
76	2964
76	3032
76	3052
76	3080
76	3113
76	3148
76	3189
76	3191
76	3364
76	3431
76	3487
76	3608
76	3616
76	3659
76	3714
76	3734
76	3761
76	3806
76	3879
76	3896
76	4009
76	4153
76	4172
76	4200
76	4237
76	4318
76	4319
76	4392
76	4428
76	4459
76	4466
76	4559
76	4634
76	4949
76	4960
76	4976
77	89
77	98
77	99
77	167
77	175
77	180
77	216
77	279
77	320
77	327
77	381
77	443
77	539
77	558
77	563
77	649
77	669
77	701
77	732
77	736
77	738
77	757
77	851
77	860
77	866
77	869
77	877
77	879
77	960
77	965
77	1023
77	1104
77	1169
77	1173
77	1182
77	1744
77	1756
77	1821
77	1891
77	1935
77	2030
77	2040
77	2114
77	2143
77	2184
77	2270
77	2282
77	2488
77	2561
77	2617
77	2622
77	2676
77	2679
77	2680
77	3072
77	3077
77	3118
77	3263
77	3422
77	3470
77	3557
77	3586
77	3745
77	3922
77	3975
77	3999
77	4037
77	4428
77	4538
77	4672
77	4954
78	132
78	133
78	141
78	142
78	156
78	168
78	173
78	198
78	215
78	234
78	238
78	241
78	244
78	249
78	252
78	310
78	338
78	340
78	351
78	395
78	397
78	437
78	470
78	494
78	526
78	530
78	548
78	573
78	630
78	664
78	685
78	854
78	898
78	943
78	1030
78	1053
78	1063
78	1156
78	1223
78	1292
78	1314
78	1347
78	1362
78	1365
78	1380
78	1441
78	1523
78	1580
78	1627
78	1648
78	1866
78	2072
78	2085
78	2121
78	2127
78	2175
78	2193
78	2280
78	2307
78	2335
78	2376
78	2383
78	2466
78	2515
78	2518
78	2525
78	2567
78	2670
78	2708
78	2843
78	2923
78	2943
78	3055
78	3155
78	3166
78	3193
78	3303
78	3401
78	3406
78	3428
78	3429
78	3436
78	3514
78	3548
78	3567
78	3590
78	3708
78	3804
78	3805
78	4371
78	4493
78	4585
78	4592
78	4621
78	4885
78	4906
78	4980
79	91
79	98
79	104
79	115
79	121
79	147
79	149
79	150
79	157
79	160
79	169
79	189
79	193
79	199
79	207
79	221
79	237
79	250
79	258
79	264
79	277
79	278
79	280
79	307
79	324
79	336
79	411
79	432
79	489
79	527
79	532
79	533
79	550
79	552
79	586
79	595
79	633
79	697
79	702
79	717
79	736
79	738
79	778
79	793
79	804
79	879
79	916
79	937
79	945
79	960
79	970
79	1024
79	1031
79	1058
79	1073
79	1085
79	1104
79	1139
79	1141
79	1278
79	1384
79	1407
79	1410
79	1418
79	1493
79	1507
79	1542
79	1567
79	1616
79	1638
79	1646
79	1649
79	1676
79	1677
79	1698
79	1741
79	1773
79	1776
79	1797
79	1798
79	1799
79	1820
79	1835
79	1859
79	1864
79	1895
79	1940
79	1955
79	2016
79	2017
79	2041
79	2060
79	2090
79	2091
79	2112
79	2124
79	2157
79	2212
79	2229
79	2322
79	2364
79	2447
79	2451
79	2466
79	2550
79	2574
79	2582
79	2808
79	2858
79	2867
79	2873
79	2972
79	3038
79	3062
79	3090
79	3103
79	3166
79	3328
79	3348
79	3576
79	3578
79	3651
79	3681
79	3777
79	3937
79	3992
79	4041
79	4093
79	4113
79	4125
79	4202
79	4369
79	4454
79	4522
79	4576
79	4658
79	4723
79	4730
79	4762
79	4795
79	4834
79	4848
79	4887
79	4983
80	81
80	92
80	95
80	112
80	138
80	151
80	167
80	170
80	171
80	173
80	178
80	182
80	192
80	221
80	245
80	249
80	310
80	338
80	356
80	357
80	390
80	392
80	394
80	395
80	427
80	441
80	477
80	486
80	493
80	494
80	513
80	559
80	606
80	634
80	654
80	695
80	708
80	721
80	753
80	772
80	775
80	778
80	831
80	832
80	880
80	903
80	912
80	919
80	962
80	1002
80	1046
80	1052
80	1064
80	1286
80	1309
80	1366
80	1373
80	1401
80	1462
80	1481
80	1539
80	1563
80	1593
80	1597
80	1664
80	1679
80	1683
80	1690
80	1709
80	1788
80	1802
80	1807
80	1868
80	1877
80	1891
80	2080
80	2145
80	2152
80	2168
80	2173
80	2238
80	2249
80	2586
80	2690
80	2808
80	2941
80	3037
80	3046
80	3047
80	3230
80	3232
80	3239
80	3338
80	3473
80	3474
80	3517
80	3537
80	3579
80	3664
80	3765
80	3772
80	3823
80	3855
80	3876
80	3968
80	4349
80	4366
80	4627
80	4755
80	4879
80	4929
80	4981
81	85
81	89
81	117
81	126
81	149
81	168
81	197
81	204
81	225
81	230
81	234
81	238
81	330
81	376
81	377
81	416
81	428
81	477
81	506
81	620
81	700
81	732
81	762
81	776
81	914
81	954
81	1081
81	1104
81	1216
81	1220
81	1245
81	1288
81	1330
81	1333
81	1351
81	1357
81	1372
81	1404
81	1415
81	1416
81	1418
81	1472
81	1492
81	1585
81	1821
81	1942
81	1952
81	2114
81	2203
81	2225
81	2253
81	2279
81	2695
81	2771
81	2856
81	2957
81	3104
81	3156
81	3364
81	3421
81	3636
81	3703
81	3776
81	3881
81	3928
81	4238
81	4431
81	4798
81	4860
82	97
82	123
82	138
82	142
82	143
82	160
82	162
82	166
82	167
82	193
82	206
82	210
82	219
82	220
82	231
82	237
82	240
82	249
82	341
82	347
82	350
82	434
82	461
82	478
82	503
82	514
82	537
82	539
82	553
82	558
82	574
82	620
82	622
82	645
82	698
82	709
82	755
82	778
82	839
82	871
82	889
82	897
82	898
82	992
82	1048
82	1097
82	1113
82	1139
82	1151
82	1195
82	1197
82	1210
82	1297
82	1365
82	1424
82	1437
82	1481
82	1520
82	1523
82	1569
82	1574
82	1670
82	1747
82	1780
82	1815
82	1876
82	1901
82	1993
82	2028
82	2048
82	2076
82	2124
82	2162
82	2171
82	2223
82	2244
82	2268
82	2330
82	2351
82	2354
82	2375
82	2377
82	2498
82	2512
82	2592
82	2688
82	2771
82	2812
82	2826
82	2865
82	2878
82	2881
82	3050
82	3055
82	3205
82	3222
82	3331
82	3421
82	3445
82	3456
82	3491
82	3520
82	3544
82	3596
82	3693
82	3715
82	3752
82	3834
82	3886
82	3958
82	3961
82	4052
82	4138
82	4162
82	4196
82	4201
82	4270
82	4284
82	4286
82	4313
82	4338
82	4459
82	4541
82	4571
82	4632
82	4695
82	4912
83	88
83	104
83	112
83	114
83	134
83	136
83	145
83	147
83	178
83	186
83	188
83	192
83	228
83	242
83	254
83	286
83	287
83	380
83	392
83	414
83	448
83	459
83	481
83	483
83	488
83	511
83	533
83	596
83	609
83	629
83	639
83	643
83	664
83	674
83	675
83	693
83	699
83	726
83	810
83	822
83	867
83	871
83	894
83	906
83	918
83	996
83	1007
83	1009
83	1046
83	1063
83	1083
83	1087
83	1096
83	1143
83	1150
83	1154
83	1168
83	1197
83	1253
83	1275
83	1291
83	1304
83	1363
83	1380
83	1432
83	1450
83	1472
83	1499
83	1523
83	1583
83	1596
83	1615
83	1629
83	1642
83	1649
83	1768
83	1785
83	1807
83	1853
83	1868
83	1876
83	1900
83	1909
83	1960
83	1997
83	2066
83	2192
83	2246
83	2252
83	2257
83	2344
83	2345
83	2346
83	2352
83	2377
83	2406
83	2428
83	2607
83	2632
83	2647
83	2755
83	2768
83	2771
83	2787
83	2893
83	2942
83	2979
83	2983
83	2988
83	3005
83	3120
83	3151
83	3195
83	3202
83	3304
83	3349
83	3377
83	3490
83	3541
83	3544
83	3716
83	3731
83	3761
83	3786
83	3901
83	3909
83	3956
83	3996
83	4055
83	4112
83	4127
83	4204
83	4229
83	4411
83	4447
83	4476
83	4572
83	4655
83	4657
83	4671
83	4717
83	4812
83	4861
83	4875
83	4884
83	4889
83	4893
83	4901
83	4935
84	96
84	100
84	136
84	147
84	149
84	154
84	171
84	206
84	229
84	235
84	236
84	252
84	291
84	337
84	356
84	393
84	397
84	407
84	449
84	456
84	457
84	458
84	482
84	609
84	667
84	671
84	680
84	695
84	719
84	899
84	913
84	921
84	941
84	1009
84	1021
84	1041
84	1056
84	1058
84	1108
84	1146
84	1188
84	1249
84	1262
84	1354
84	1380
84	1392
84	1460
84	1497
84	1507
84	1535
84	1563
84	1580
84	1862
84	2094
84	2122
84	2142
84	2153
84	2169
84	2187
84	2199
84	2221
84	2330
84	2592
84	2638
84	2648
84	2719
84	2808
84	2868
84	2903
84	3245
84	3376
84	3495
84	3538
84	3630
84	3638
84	3663
84	3683
84	3734
84	3794
84	3815
84	3825
84	3833
84	3916
84	3945
84	4009
84	4075
84	4192
84	4298
84	4349
84	4461
84	4531
84	4561
84	4567
84	4573
84	4734
84	4778
84	4869
84	4878
84	4933
84	4972
85	123
85	128
85	131
85	133
85	135
85	148
85	176
85	194
85	227
85	243
85	284
85	294
85	385
85	431
85	478
85	490
85	562
85	573
85	653
85	657
85	675
85	687
85	707
85	771
85	779
85	783
85	790
85	822
85	849
85	896
85	916
85	970
85	1022
85	1032
85	1036
85	1043
85	1056
85	1073
85	1167
85	1224
85	1267
85	1357
85	1400
85	1527
85	1696
85	1759
85	1776
85	1796
85	1926
85	1947
85	1979
85	2011
85	2167
85	2192
85	2288
85	2391
85	2544
85	2857
85	2906
85	2979
85	3058
85	3077
85	3112
85	3178
85	3300
85	3407
85	3425
85	3505
85	3541
85	3569
85	3615
85	3667
85	3784
85	4008
85	4026
85	4051
85	4164
85	4304
85	4469
85	4621
85	4810
85	4872
85	4962
86	88
86	96
86	99
86	105
86	108
86	109
86	118
86	133
86	151
86	172
86	180
86	200
86	207
86	212
86	223
86	228
86	254
86	260
86	263
86	267
86	268
86	297
86	313
86	336
86	359
86	360
86	367
86	410
86	412
86	418
86	419
86	420
86	422
86	423
86	447
86	464
86	484
86	487
86	489
86	490
86	501
86	509
86	520
86	537
86	548
86	558
86	569
86	606
86	618
86	638
86	646
86	671
86	720
86	729
86	772
86	818
86	830
86	838
86	842
86	843
86	859
86	888
86	967
86	990
86	1012
86	1021
86	1022
86	1048
86	1065
86	1068
86	1072
86	1171
86	1232
86	1235
86	1243
86	1318
86	1358
86	1392
86	1407
86	1443
86	1467
86	1484
86	1512
86	1546
86	1548
86	1555
86	1611
86	1651
86	1659
86	1683
86	1710
86	1726
86	1757
86	1782
86	1793
86	1799
86	1854
86	1861
86	1866
86	1873
86	1879
86	2022
86	2023
86	2048
86	2054
86	2063
86	2090
86	2093
86	2094
86	2169
86	2293
86	2298
86	2314
86	2356
86	2460
86	2470
86	2474
86	2520
86	2596
86	2663
86	2668
86	2690
86	2693
86	2741
86	2762
86	2844
86	2881
86	2901
86	2942
86	2948
86	2984
86	3011
86	3103
86	3105
86	3128
86	3147
86	3162
86	3238
86	3268
86	3317
86	3321
86	3323
86	3386
86	3449
86	3509
86	3541
86	3607
86	3609
86	3623
86	3684
86	3734
86	3745
86	3779
86	3795
86	3802
86	3814
86	3821
86	3835
86	3878
86	3941
86	3942
86	4021
86	4044
86	4048
86	4066
86	4094
86	4133
86	4195
86	4213
86	4319
86	4348
86	4350
86	4356
86	4360
86	4406
86	4418
86	4477
86	4491
86	4498
86	4525
86	4538
86	4706
86	4712
86	4895
87	98
87	111
87	136
87	149
87	160
87	177
87	179
87	249
87	312
87	452
87	495
87	496
87	531
87	673
87	720
87	777
87	811
87	837
87	954
87	1104
87	1189
87	1258
87	1357
87	1370
87	1399
87	1402
87	1454
87	1497
87	1501
87	1668
87	1695
87	1811
87	1850
87	1856
87	1892
87	1902
87	2062
87	2160
87	2228
87	2286
87	2293
87	2296
87	2316
87	2334
87	2424
87	2514
87	2552
87	2624
87	2685
87	2782
87	2791
87	2885
87	3059
87	3121
87	3319
87	3344
87	3362
87	3489
87	3524
87	3774
87	3918
87	4065
87	4087
87	4128
87	4308
87	4348
87	4583
87	4710
87	4818
87	4909
88	109
88	185
88	248
88	279
88	310
88	337
88	368
88	381
88	392
88	394
88	399
88	411
88	419
88	428
88	543
88	559
88	580
88	612
88	624
88	647
88	681
88	683
88	701
88	751
88	755
88	768
88	869
88	918
88	1014
88	1165
88	1223
88	1252
88	1272
88	1296
88	1355
88	1372
88	1374
88	1463
88	1572
88	1575
88	1598
88	1626
88	1646
88	1720
88	1736
88	1761
88	1834
88	1898
88	1952
88	1962
88	2008
88	2086
88	2292
88	2322
88	2368
88	2460
88	2474
88	2569
88	2577
88	2621
88	2691
88	3059
88	3079
88	3149
88	3324
88	3418
88	3441
88	3577
88	3759
88	3778
88	3822
88	3872
88	4016
88	4168
88	4277
88	4303
88	4318
88	4412
88	4704
89	90
89	115
89	120
89	154
89	158
89	183
89	214
89	221
89	259
89	273
89	282
89	294
89	299
89	300
89	308
89	343
89	345
89	359
89	373
89	381
89	398
89	409
89	410
89	421
89	446
89	460
89	467
89	506
89	537
89	546
89	564
89	591
89	611
89	616
89	650
89	670
89	676
89	707
89	811
89	833
89	868
89	896
89	910
89	941
89	1004
89	1011
89	1037
89	1139
89	1159
89	1195
89	1255
89	1316
89	1350
89	1450
89	1455
89	1489
89	1513
89	1520
89	1580
89	1647
89	1678
89	1692
89	1742
89	1833
89	1912
89	2048
89	2069
89	2094
89	2247
89	2254
89	2266
89	2278
89	2289
89	2308
89	2311
89	2454
89	2506
89	2712
89	2805
89	2870
89	2935
89	2941
89	3046
89	3202
89	3295
89	3366
89	3410
89	3420
89	3562
89	3631
89	3665
89	3677
89	3725
89	4081
89	4207
89	4288
89	4324
89	4369
89	4461
89	4475
89	4558
89	4650
89	4791
89	4799
89	4812
89	4833
89	4924
89	4943
89	4951
90	91
90	93
90	103
90	112
90	118
90	132
90	145
90	209
90	211
90	219
90	224
90	249
90	255
90	302
90	336
90	388
90	393
90	410
90	454
90	458
90	470
90	479
90	481
90	488
90	512
90	516
90	526
90	543
90	546
90	549
90	593
90	601
90	655
90	668
90	751
90	760
90	780
90	786
90	791
90	793
90	796
90	812
90	824
90	840
90	846
90	866
90	899
90	932
90	944
90	961
90	975
90	988
90	1072
90	1097
90	1103
90	1208
90	1226
90	1266
90	1314
90	1324
90	1512
90	1532
90	1551
90	1554
90	1626
90	1659
90	1701
90	1710
90	1768
90	1778
90	1801
90	1809
90	1940
90	1962
90	1967
90	1990
90	1991
90	1994
90	2048
90	2103
90	2139
90	2141
90	2180
90	2212
90	2240
90	2277
90	2313
90	2418
90	2447
90	2476
90	2524
90	2532
90	2576
90	2586
90	2600
90	2616
90	2620
90	2645
90	2675
90	2820
90	2929
90	2955
90	2961
90	3006
90	3066
90	3121
90	3129
90	3182
90	3255
90	3259
90	3371
90	3372
90	3507
90	3634
90	3666
90	3688
90	3721
90	3787
90	3792
90	3870
90	4073
90	4216
90	4271
90	4411
90	4418
90	4675
90	4683
90	4705
90	4971
91	92
91	93
91	101
91	128
91	137
91	140
91	145
91	149
91	157
91	160
91	181
91	185
91	191
91	208
91	248
91	264
91	278
91	284
91	309
91	329
91	332
91	344
91	400
91	507
91	536
91	599
91	706
91	713
91	725
91	767
91	795
91	861
91	1025
91	1052
91	1142
91	1182
91	1247
91	1292
91	1366
91	1381
91	1528
91	1547
91	1549
91	1615
91	1659
91	1697
91	1707
91	1766
91	1814
91	2007
91	2270
91	2787
91	2886
91	2891
91	2913
91	3043
91	3153
91	3219
91	3259
91	3344
91	3420
91	3589
91	3675
91	3817
91	3955
91	4180
91	4364
91	4481
91	4563
91	4719
91	4768
91	4867
92	111
92	117
92	145
92	157
92	158
92	210
92	220
92	284
92	326
92	339
92	384
92	416
92	419
92	424
92	456
92	463
92	472
92	550
92	596
92	662
92	692
92	786
92	794
92	838
92	902
92	928
92	974
92	1000
92	1003
92	1137
92	1288
92	1414
92	1487
92	1627
92	1876
92	1892
92	1916
92	1967
92	2249
92	2437
92	2446
92	2642
92	2666
92	2669
92	2727
92	2896
92	2976
92	2980
92	2983
92	3082
92	3138
92	3233
92	3238
92	3325
92	3328
92	3359
92	3399
92	3463
92	3524
92	3632
92	3694
92	3736
92	3807
92	3888
92	4062
92	4113
92	4220
92	4259
92	4409
92	4579
92	4681
92	4682
92	4832
92	4959
93	98
93	117
93	137
93	142
93	151
93	154
93	155
93	168
93	202
93	203
93	205
93	218
93	228
93	260
93	325
93	394
93	402
93	422
93	459
93	481
93	516
93	592
93	653
93	665
93	691
93	760
93	874
93	1070
93	1155
93	1180
93	1238
93	1295
93	1366
93	1454
93	1478
93	1519
93	1573
93	1595
93	1603
93	1670
93	1926
93	1977
93	2035
93	2114
93	2199
93	2228
93	2229
93	2345
93	2372
93	2440
93	2455
93	2479
93	2537
93	2702
93	2727
93	2770
93	3018
93	3241
93	3324
93	3357
93	3442
93	3482
93	3589
93	3607
93	3684
93	3853
93	3980
93	4009
93	4126
93	4129
93	4474
93	4574
93	4662
93	4735
93	4747
93	4780
93	4931
93	4969
94	107
94	143
94	150
94	151
94	175
94	187
94	190
94	192
94	205
94	208
94	214
94	218
94	232
94	237
94	250
94	266
94	314
94	333
94	360
94	375
94	400
94	401
94	483
94	542
94	548
94	585
94	588
94	616
94	624
94	644
94	645
94	653
94	674
94	752
94	789
94	858
94	871
94	880
94	912
94	1029
94	1043
94	1067
94	1093
94	1100
94	1109
94	1111
94	1194
94	1211
94	1232
94	1287
94	1297
94	1320
94	1337
94	1429
94	1460
94	1496
94	1698
94	1721
94	1738
94	1749
94	1751
94	1753
94	1832
94	1841
94	1852
94	1856
94	1874
94	1885
94	1929
94	2081
94	2130
94	2207
94	2298
94	2359
94	2371
94	2408
94	2460
94	2661
94	2676
94	2792
94	2903
94	2970
94	3004
94	3173
94	3211
94	3240
94	3265
94	3318
94	3387
94	3444
94	3451
94	3459
94	3484
94	3638
94	3703
94	3794
94	3801
94	3921
94	3927
94	4123
94	4146
94	4185
94	4188
94	4211
94	4258
94	4385
94	4484
94	4564
94	4787
94	4823
94	4847
94	4886
94	4890
94	4897
94	4951
95	96
95	102
95	116
95	136
95	150
95	158
95	159
95	161
95	162
95	166
95	175
95	184
95	185
95	196
95	221
95	224
95	228
95	244
95	245
95	257
95	261
95	262
95	264
95	290
95	295
95	397
95	402
95	425
95	440
95	442
95	445
95	446
95	455
95	480
95	500
95	501
95	509
95	521
95	527
95	533
95	550
95	559
95	565
95	567
95	581
95	602
95	636
95	652
95	713
95	773
95	789
95	805
95	816
95	837
95	861
95	865
95	868
95	914
95	924
95	932
95	939
95	955
95	1029
95	1037
95	1059
95	1080
95	1108
95	1152
95	1164
95	1217
95	1251
95	1256
95	1257
95	1328
95	1344
95	1393
95	1401
95	1406
95	1525
95	1649
95	1664
95	1669
95	1718
95	1746
95	1758
95	1904
95	1911
95	1913
95	1930
95	1975
95	2002
95	2067
95	2073
95	2142
95	2145
95	2146
95	2165
95	2185
95	2296
95	2339
95	2431
95	2441
95	2459
95	2548
95	2656
95	2710
95	2758
95	2823
95	2838
95	2852
95	2911
95	2914
95	2957
95	3086
95	3089
95	3119
95	3136
95	3177
95	3195
95	3246
95	3257
95	3295
95	3380
95	3468
95	3559
95	3576
95	3704
95	3712
95	3738
95	3795
95	3817
95	3908
95	3954
95	4047
95	4060
95	4096
95	4118
95	4152
95	4272
95	4548
95	4571
95	4671
95	4689
95	4710
95	4711
95	4883
96	97
96	106
96	110
96	115
96	143
96	154
96	170
96	179
96	182
96	188
96	197
96	210
96	217
96	241
96	270
96	289
96	340
96	342
96	360
96	392
96	394
96	396
96	397
96	404
96	422
96	434
96	437
96	438
96	441
96	443
96	468
96	478
96	494
96	544
96	565
96	570
96	654
96	683
96	750
96	753
96	781
96	784
96	813
96	821
96	828
96	840
96	844
96	847
96	848
96	857
96	860
96	866
96	877
96	883
96	885
96	943
96	947
96	948
96	1062
96	1075
96	1103
96	1122
96	1171
96	1182
96	1222
96	1240
96	1253
96	1296
96	1312
96	1389
96	1411
96	1413
96	1590
96	1609
96	1663
96	1691
96	1695
96	1696
96	1765
96	1812
96	1830
96	1857
96	1894
96	1937
96	1944
96	1967
96	1980
96	1998
96	2005
96	2026
96	2036
96	2054
96	2066
96	2069
96	2072
96	2106
96	2108
96	2143
96	2147
96	2235
96	2273
96	2286
96	2314
96	2331
96	2353
96	2368
96	2414
96	2478
96	2502
96	2533
96	2673
96	2844
96	2859
96	2973
96	2978
96	3017
96	3053
96	3180
96	3223
96	3271
96	3289
96	3335
96	3341
96	3728
96	3729
96	3780
96	3851
96	3860
96	3969
96	3988
96	4028
96	4047
96	4049
96	4184
96	4189
96	4202
96	4402
96	4426
96	4483
96	4518
96	4524
96	4536
96	4565
96	4593
96	4617
96	4663
96	4926
96	4946
96	4974
97	104
97	112
97	126
97	127
97	137
97	139
97	148
97	152
97	156
97	158
97	172
97	192
97	199
97	233
97	270
97	278
97	288
97	338
97	369
97	408
97	412
97	440
97	469
97	480
97	483
97	527
97	562
97	608
97	615
97	643
97	661
97	681
97	703
97	745
97	765
97	794
97	796
97	810
97	851
97	873
97	875
97	910
97	913
97	944
97	949
97	1030
97	1065
97	1077
97	1104
97	1128
97	1196
97	1237
97	1242
97	1335
97	1349
97	1352
97	1361
97	1412
97	1525
97	1558
97	1590
97	1633
97	1671
97	1735
97	1760
97	1809
97	1862
97	1931
97	2072
97	2163
97	2188
97	2300
97	2434
97	2708
97	2783
97	2815
97	2879
97	2930
97	3018
97	3151
97	3204
97	3303
97	3363
97	3377
97	3440
97	3615
97	3626
97	3655
97	3722
97	3767
97	3853
97	3889
97	4011
97	4053
97	4090
97	4135
97	4213
97	4299
97	4373
97	4389
97	4422
97	4456
97	4482
97	4555
97	4885
97	4894
97	4930
97	4981
98	103
98	117
98	125
98	129
98	132
98	136
98	148
98	161
98	195
98	235
98	256
98	276
98	298
98	317
98	322
98	337
98	361
98	397
98	427
98	451
98	526
98	564
98	572
98	583
98	593
98	599
98	636
98	671
98	674
98	732
98	737
98	747
98	816
98	834
98	885
98	887
98	939
98	1003
98	1123
98	1141
98	1146
98	1255
98	1275
98	1343
98	1357
98	1361
98	1397
98	1459
98	1636
98	1659
98	1688
98	1722
98	1855
98	1889
98	1922
98	2042
98	2063
98	2078
98	2323
98	2367
98	2408
98	2423
98	2565
98	2577
98	2598
98	2622
98	2639
98	2689
98	3072
98	3086
98	3112
98	3164
98	3172
98	3258
98	3371
98	3387
98	3415
98	3425
98	3534
98	3542
98	3545
98	3568
98	3595
98	3782
98	3850
98	3879
98	3940
98	4029
98	4105
98	4173
98	4199
98	4262
98	4369
98	4541
98	4620
98	4715
98	4726
98	4772
98	4796
98	4818
98	4833
98	4897
99	161
99	224
99	225
99	232
99	278
99	280
99	317
99	325
99	343
99	365
99	367
99	379
99	382
99	385
99	435
99	459
99	533
99	567
99	637
99	677
99	699
99	705
99	726
99	758
99	778
99	795
99	811
99	873
99	902
99	947
99	948
99	951
99	956
99	959
99	980
99	1069
99	1114
99	1127
99	1153
99	1174
99	1193
99	1227
99	1244
99	1258
99	1273
99	1323
99	1344
99	1403
99	1422
99	1423
99	1442
99	1499
99	1502
99	1516
99	1594
99	1631
99	1664
99	1710
99	1831
99	2216
99	2347
99	2377
99	2402
99	2410
99	2439
99	2531
99	2584
99	2790
99	2799
99	2800
99	2970
99	3042
99	3048
99	3053
99	3055
99	3107
99	3195
99	3228
99	3247
99	3251
99	3298
99	3434
99	3479
99	3549
99	3559
99	3631
99	3642
99	3662
99	3692
99	4001
99	4031
99	4180
99	4221
99	4236
99	4257
99	4294
99	4318
99	4357
99	4545
99	4574
99	4591
99	4594
99	4827
99	4912
99	4919
99	4949
100	101
100	102
100	119
100	138
100	150
100	151
100	152
100	153
100	178
100	181
100	183
100	190
100	200
100	201
100	203
100	217
100	219
100	239
100	248
100	267
100	305
100	336
100	348
100	367
100	379
100	407
100	466
100	501
100	507
100	510
100	564
100	570
100	582
100	632
100	663
100	687
100	792
100	797
100	828
100	889
100	903
100	905
100	906
100	912
100	918
100	935
100	1011
100	1162
100	1187
100	1256
100	1280
100	1314
100	1456
100	1529
100	1550
100	1625
100	1727
100	1731
100	1736
100	1770
100	1777
100	1799
100	1817
100	1823
100	1835
100	2110
100	2132
100	2163
100	2246
100	2251
100	2268
100	2278
100	2315
100	2342
100	2347
100	2349
100	2521
100	2533
100	2586
100	2603
100	2610
100	2738
100	2772
100	2788
100	2827
100	3113
100	3251
100	3273
100	3288
100	3327
100	3364
100	3447
100	3519
100	3597
100	3602
100	3656
100	3714
100	3777
100	3803
100	3856
100	3952
100	3979
100	4012
100	4032
100	4075
100	4098
100	4190
100	4195
100	4289
100	4420
100	4446
100	4609
100	4616
100	4644
100	4688
100	4799
101	102
101	119
101	127
101	135
101	142
101	148
101	154
101	238
101	250
101	255
101	257
101	267
101	275
101	294
101	298
101	320
101	325
101	332
101	361
101	374
101	377
101	390
101	451
101	472
101	506
101	547
101	617
101	667
101	684
101	687
101	732
101	826
101	869
101	898
101	944
101	950
101	1005
101	1039
101	1043
101	1072
101	1200
101	1205
101	1281
101	1339
101	1469
101	1833
101	1845
101	1878
101	1891
101	1898
101	1954
101	1966
101	2010
101	2044
101	2099
101	2175
101	2231
101	2327
101	2337
101	2348
101	2405
101	2419
101	2467
101	2503
101	2522
101	2534
101	2772
101	2944
101	2995
101	3065
101	3212
101	3267
101	3428
101	3595
101	3647
101	3727
101	3821
101	3859
101	3940
101	3976
101	4028
101	4032
101	4203
101	4220
101	4264
101	4302
101	4431
101	4520
101	4649
101	4792
102	108
102	112
102	120
102	133
102	136
102	137
102	138
102	157
102	168
102	173
102	190
102	203
102	207
102	209
102	231
102	247
102	253
102	279
102	280
102	285
102	299
102	306
102	309
102	314
102	317
102	327
102	337
102	346
102	347
102	374
102	382
102	407
102	411
102	427
102	475
102	525
102	554
102	561
102	603
102	646
102	661
102	695
102	714
102	740
102	757
102	768
102	845
102	874
102	878
102	883
102	904
102	930
102	986
102	988
102	1012
102	1019
102	1023
102	1025
102	1080
102	1092
102	1100
102	1150
102	1176
102	1180
102	1193
102	1195
102	1276
102	1298
102	1384
102	1395
102	1484
102	1505
102	1595
102	1600
102	1687
102	1700
102	1710
102	1718
102	1754
102	1778
102	1783
102	1892
102	2168
102	2234
102	2237
102	2331
102	2367
102	2413
102	2426
102	2461
102	2480
102	2633
102	2695
102	2822
102	2852
102	2896
102	2898
102	2956
102	2958
102	3087
102	3209
102	3230
102	3298
102	3314
102	3322
102	3335
102	3337
102	3379
102	3534
102	3540
102	3564
102	3588
102	3590
102	3658
102	3979
102	4091
102	4096
102	4182
102	4211
102	4228
102	4259
102	4274
102	4331
102	4423
102	4424
102	4451
102	4484
102	4546
102	4619
102	4675
102	4687
102	4734
102	4752
102	4803
102	4855
102	4889
103	104
103	114
103	128
103	137
103	153
103	187
103	191
103	194
103	209
103	210
103	422
103	514
103	527
103	542
103	587
103	594
103	637
103	656
103	704
103	760
103	812
103	948
103	973
103	983
103	1010
103	1221
103	1236
103	1252
103	1258
103	1271
103	1334
103	1452
103	1456
103	1525
103	1648
103	1730
103	1810
103	1848
103	1979
103	2000
103	2118
103	2227
103	2299
103	2433
103	2442
103	2595
103	2655
103	2800
103	3124
103	3146
103	3166
103	3250
103	3512
103	3559
103	3731
103	3831
103	3849
103	4102
103	4171
103	4701
103	4824
104	106
104	107
104	119
104	122
104	136
104	151
104	159
104	162
104	163
104	180
104	189
104	240
104	296
104	309
104	370
104	408
104	421
104	439
104	486
104	520
104	573
104	582
104	586
104	610
104	611
104	620
104	854
104	984
104	1075
104	1089
104	1108
104	1109
104	1138
104	1149
104	1179
104	1217
104	1353
104	1395
104	1428
104	1496
104	1644
104	1703
104	1764
104	1804
104	1845
104	1855
104	1877
104	1923
104	1944
104	2038
104	2108
104	2186
104	2231
104	2329
104	2339
104	2358
104	2396
104	2435
104	2547
104	2558
104	2612
104	2618
104	2631
104	2694
104	2796
104	2832
104	2893
104	2930
104	3063
104	3069
104	3143
104	3166
104	3250
104	3264
104	3372
104	3389
104	3508
104	3592
104	3875
104	3939
104	4045
104	4074
104	4374
104	4393
104	4613
104	4632
104	4810
104	4994
105	107
105	118
105	172
105	182
105	189
105	190
105	194
105	226
105	243
105	252
105	277
105	296
105	332
105	338
105	378
105	418
105	437
105	442
105	468
105	474
105	509
105	525
105	559
105	560
105	601
105	685
105	688
105	690
105	724
105	726
105	756
105	799
105	808
105	809
105	847
105	855
105	901
105	1012
105	1087
105	1098
105	1129
105	1131
105	1132
105	1170
105	1211
105	1301
105	1406
105	1421
105	1457
105	1489
105	1520
105	1608
105	1640
105	1805
105	1824
105	1830
105	1848
105	1866
105	1932
105	1968
105	2064
105	2075
105	2107
105	2216
105	2290
105	2434
105	2508
105	2658
105	2757
105	2758
105	2776
105	2831
105	2863
105	2865
105	3037
105	3170
105	3179
105	3188
105	3224
105	3334
105	3385
105	3496
105	3522
105	3524
105	3550
105	3677
105	3691
105	3710
105	3807
105	3850
105	3904
105	3940
105	4001
105	4101
105	4178
105	4283
105	4544
105	4790
105	4834
105	4947
106	108
106	125
106	144
106	150
106	254
106	258
106	339
106	364
106	367
106	471
106	494
106	524
106	561
106	576
106	598
106	626
106	633
106	659
106	700
106	710
106	835
106	915
106	925
106	945
106	970
106	992
106	1001
106	1111
106	1192
106	1239
106	1254
106	1266
106	1432
106	1436
106	1470
106	1517
106	1602
106	1612
106	1625
106	1673
106	1840
106	1852
106	1886
106	1987
106	1988
106	1992
106	2022
106	2120
106	2183
106	2186
106	2197
106	2355
106	2473
106	2478
106	2573
106	2697
106	2742
106	2848
106	3413
106	3542
106	3620
106	3764
106	3861
106	3931
106	3937
106	3954
106	4008
106	4025
106	4091
106	4148
106	4197
106	4282
106	4343
106	4359
106	4495
106	4506
106	4517
106	4749
106	4779
106	4902
106	4938
107	111
107	126
107	127
107	133
107	146
107	291
107	305
107	348
107	406
107	409
107	467
107	507
107	569
107	611
107	614
107	659
107	738
107	741
107	762
107	766
107	780
107	827
107	939
107	959
107	1054
107	1059
107	1144
107	1178
107	1239
107	1253
107	1272
107	1286
107	1297
107	1302
107	1349
107	1389
107	1405
107	1423
107	1482
107	1488
107	1492
107	1506
107	1522
107	1638
107	1653
107	1749
107	1770
107	1875
107	1922
107	1923
107	1932
107	1933
107	1942
107	1967
107	1970
107	2004
107	2032
107	2046
107	2049
107	2123
107	2196
107	2211
107	2263
107	2331
107	2403
107	2443
107	2527
107	2577
107	2626
107	2630
107	2653
107	2754
107	2922
107	3080
107	3180
107	3298
107	3316
107	3399
107	3556
107	3696
107	3822
107	4180
107	4199
107	4239
107	4355
107	4406
107	4488
107	4533
107	4688
107	4701
107	4738
107	4796
107	4945
107	4957
108	139
108	150
108	196
108	197
108	205
108	213
108	216
108	228
108	247
108	249
108	268
108	275
108	281
108	407
108	421
108	444
108	524
108	548
108	555
108	557
108	587
108	600
108	618
108	622
108	630
108	637
108	652
108	664
108	699
108	790
108	791
108	801
108	851
108	873
108	880
108	885
108	900
108	958
108	972
108	1124
108	1136
108	1147
108	1168
108	1182
108	1208
108	1229
108	1320
108	1328
108	1344
108	1371
108	1419
108	1483
108	1516
108	1530
108	1582
108	1603
108	1625
108	1687
108	1690
108	1699
108	1739
108	1750
108	1772
108	1786
108	1937
108	2057
108	2117
108	2286
108	2288
108	2314
108	2452
108	2474
108	2541
108	2610
108	2618
108	2664
108	2691
108	2801
108	2804
108	2833
108	2936
108	2945
108	3081
108	3082
108	3175
108	3201
108	3273
108	3352
108	3397
108	3423
108	3479
108	3534
108	3597
108	3637
108	3759
108	3847
108	3868
108	3913
108	3977
108	4119
108	4217
108	4222
108	4649
108	4660
108	4875
108	4958
108	4981
109	110
109	120
109	129
109	155
109	166
109	167
109	227
109	234
109	258
109	269
109	311
109	316
109	335
109	363
109	384
109	452
109	458
109	494
109	497
109	514
109	564
109	592
109	611
109	731
109	735
109	771
109	820
109	888
109	922
109	968
109	980
109	1043
109	1057
109	1085
109	1094
109	1133
109	1183
109	1192
109	1224
109	1353
109	1549
109	1581
109	1632
109	1647
109	1650
109	1661
109	1859
109	1895
109	1931
109	1984
109	2238
109	2271
109	2291
109	2300
109	2425
109	2575
109	2666
109	2732
109	2779
109	2815
109	2820
109	2868
109	2874
109	2939
109	3045
109	3092
109	3179
109	3184
109	3205
109	3211
109	3240
109	3319
109	3325
109	3376
109	3384
109	3468
109	3592
109	3676
109	3728
109	3922
109	3934
109	3952
109	3982
109	3984
109	4055
109	4059
109	4089
109	4346
109	4569
109	4590
109	4686
109	4703
109	4733
109	4769
109	4804
109	4844
109	4870
109	4900
110	131
110	207
110	208
110	218
110	219
110	220
110	236
110	251
110	259
110	260
110	283
110	330
110	331
110	347
110	350
110	414
110	434
110	439
110	469
110	516
110	524
110	526
110	537
110	566
110	602
110	708
110	721
110	749
110	800
110	801
110	919
110	956
110	1023
110	1066
110	1114
110	1139
110	1201
110	1236
110	1286
110	1288
110	1370
110	1423
110	1430
110	1446
110	1484
110	1497
110	1509
110	1515
110	1518
110	1671
110	1698
110	1700
110	1756
110	1821
110	1845
110	1934
110	1938
110	2088
110	2092
110	2105
110	2277
110	2300
110	2307
110	2308
110	2492
110	2589
110	2732
110	2746
110	2833
110	2939
110	3007
110	3013
110	3036
110	3196
110	3302
110	3310
110	3415
110	3470
110	3517
110	3527
110	3540
110	3626
110	3757
110	3775
110	3841
110	3846
110	3927
110	3971
110	4075
110	4163
110	4415
110	4453
110	4477
110	4485
110	4669
110	4680
110	4700
110	4757
110	4811
110	4813
110	4846
110	4854
110	4949
110	4963
111	130
111	131
111	135
111	149
111	153
111	179
111	186
111	193
111	194
111	204
111	223
111	245
111	250
111	293
111	311
111	313
111	316
111	328
111	331
111	340
111	354
111	360
111	368
111	378
111	415
111	427
111	444
111	448
111	454
111	478
111	505
111	509
111	529
111	580
111	626
111	636
111	660
111	688
111	716
111	745
111	765
111	856
111	866
111	889
111	926
111	946
111	955
111	964
111	1035
111	1106
111	1120
111	1148
111	1192
111	1238
111	1286
111	1361
111	1379
111	1433
111	1490
111	1657
111	1683
111	1745
111	1749
111	1775
111	1790
111	1937
111	1960
111	1996
111	2019
111	2063
111	2144
111	2195
111	2501
111	2564
111	2597
111	2606
111	2621
111	2788
111	2895
111	2901
111	2982
111	3013
111	3057
111	3090
111	3255
111	3270
111	3340
111	3447
111	3522
111	3638
111	3757
111	3913
111	4065
111	4073
111	4108
111	4142
111	4225
111	4227
111	4335
111	4396
111	4434
111	4546
111	4568
111	4595
111	4690
111	4819
111	4849
111	4967
112	114
112	121
112	124
112	132
112	211
112	219
112	228
112	239
112	248
112	251
112	333
112	339
112	344
112	385
112	389
112	413
112	420
112	422
112	445
112	487
112	496
112	520
112	540
112	553
112	561
112	589
112	611
112	619
112	625
112	629
112	635
112	706
112	715
112	716
112	801
112	809
112	814
112	846
112	864
112	875
112	920
112	996
112	1015
112	1020
112	1058
112	1093
112	1101
112	1120
112	1132
112	1133
112	1134
112	1147
112	1229
112	1265
112	1276
112	1305
112	1388
112	1463
112	1532
112	1539
112	1550
112	1602
112	1621
112	1657
112	1710
112	1729
112	1735
112	1912
112	1936
112	1993
112	2024
112	2077
112	2118
112	2141
112	2223
112	2350
112	2366
112	2379
112	2382
112	2424
112	2469
112	2482
112	2526
112	2537
112	2597
112	2617
112	2624
112	2711
112	2718
112	2729
112	2764
112	2777
112	2781
112	2881
112	2939
112	2963
112	2976
112	3000
112	3056
112	3066
112	3137
112	3161
112	3170
112	3257
112	3416
112	3575
112	3744
112	3831
112	3869
112	3955
112	3968
112	4092
112	4142
112	4174
112	4239
112	4334
112	4414
112	4480
112	4571
112	4678
112	4925
112	4958
113	162
113	188
113	221
113	225
113	265
113	291
113	304
113	390
113	423
113	469
113	557
113	576
113	577
113	580
113	597
113	657
113	707
113	759
113	768
113	935
113	936
113	972
113	985
113	1040
113	1071
113	1133
113	1290
113	1296
113	1342
113	1344
113	1425
113	1464
113	1507
113	1609
113	1668
113	1791
113	1895
113	1929
113	1989
113	1995
113	2114
113	2138
113	2151
113	2350
113	2358
113	2395
113	2411
113	2570
113	2624
113	2638
113	2657
113	2742
113	2919
113	3006
113	3011
113	3127
113	3170
113	3272
113	3349
113	3350
113	3628
113	3721
113	3801
113	4057
113	4154
113	4286
113	4487
113	4856
113	4906
113	4923
113	4982
114	191
114	199
114	222
114	234
114	243
114	254
114	291
114	302
114	354
114	356
114	373
114	380
114	383
114	390
114	525
114	561
114	579
114	639
114	672
114	679
114	742
114	785
114	821
114	927
114	958
114	1041
114	1115
114	1225
114	1229
114	1326
114	1399
114	1499
114	1501
114	1545
114	1551
114	1558
114	1569
114	1643
114	1761
114	1780
114	1786
114	1789
114	1827
114	1847
114	1861
114	1988
114	2018
114	2096
114	2159
114	2233
114	2435
114	2593
114	2631
114	2641
114	2725
114	2743
114	2831
114	2909
114	3065
114	3097
114	3250
114	3338
114	3421
114	3464
114	3484
114	3623
114	3649
114	3767
114	3930
114	4066
114	4189
114	4225
114	4230
114	4518
114	4564
114	4585
114	4595
114	4867
114	4909
115	148
115	211
115	232
115	233
115	267
115	282
115	394
115	411
115	412
115	418
115	425
115	478
115	527
115	553
115	580
115	620
115	695
115	717
115	794
115	976
115	1040
115	1065
115	1085
115	1088
115	1231
115	1322
115	1325
115	1375
115	1452
115	1461
115	1464
115	1468
115	1541
115	1609
115	1879
115	2019
115	2036
115	2146
115	2263
115	2330
115	2333
115	2393
115	2573
115	2699
115	2752
115	2805
115	3320
115	3344
115	3449
115	3520
115	3523
115	3755
115	3818
115	3819
115	3883
115	4105
115	4115
115	4181
115	4283
115	4289
115	4323
115	4537
115	4629
115	4728
116	177
116	179
116	202
116	214
116	227
116	231
116	236
116	242
116	248
116	277
116	283
116	374
116	382
116	406
116	488
116	512
116	538
116	598
116	667
116	746
116	759
116	774
116	780
116	782
116	807
116	822
116	942
116	953
116	1148
116	1276
116	1308
116	1333
116	1343
116	1345
116	1437
116	1483
116	1544
116	1596
116	1641
116	1721
116	1812
116	1860
116	2050
116	2199
116	2220
116	2331
116	2370
116	2398
116	2600
116	2715
116	2825
116	3014
116	3048
116	3251
116	3356
116	3414
116	3537
116	3546
116	3549
116	3607
116	3656
116	3843
116	4038
116	4134
116	4178
116	4230
116	4475
116	4502
116	4764
116	4841
116	4901
117	122
117	153
117	165
117	166
117	170
117	172
117	180
117	184
117	191
117	192
117	221
117	235
117	237
117	262
117	264
117	287
117	289
117	296
117	371
117	373
117	374
117	377
117	381
117	396
117	404
117	412
117	424
117	438
117	458
117	468
117	520
117	547
117	553
117	566
117	589
117	625
117	639
117	672
117	732
117	785
117	827
117	840
117	843
117	887
117	954
117	964
117	1019
117	1284
117	1293
117	1295
117	1305
117	1440
117	1450
117	1520
117	1564
117	1565
117	1576
117	1591
117	1601
117	1664
117	1678
117	1824
117	1825
117	1842
117	1917
117	1921
117	1925
117	1972
117	2017
117	2053
117	2207
117	2268
117	2376
117	2430
117	2468
117	2508
117	2537
117	2681
117	2712
117	2719
117	2723
117	2744
117	2754
117	2809
117	2979
117	2990
117	3045
117	3134
117	3198
117	3203
117	3242
117	3261
117	3564
117	3596
117	3702
117	3731
117	3739
117	3782
117	3803
117	3894
117	3995
117	4012
117	4167
117	4245
117	4297
117	4310
117	4426
117	4522
117	4829
117	4934
118	140
118	152
118	154
118	158
118	167
118	173
118	175
118	179
118	184
118	185
118	187
118	189
118	195
118	290
118	317
118	319
118	335
118	336
118	341
118	354
118	375
118	382
118	384
118	396
118	411
118	418
118	435
118	439
118	466
118	479
118	480
118	545
118	549
118	556
118	622
118	682
118	717
118	719
118	732
118	783
118	824
118	829
118	851
118	893
118	946
118	1067
118	1089
118	1131
118	1150
118	1186
118	1274
118	1325
118	1431
118	1491
118	1544
118	1557
118	1640
118	1650
118	1681
118	1706
118	1716
118	1849
118	1879
118	1890
118	1921
118	1941
118	1943
118	1970
118	1990
118	1996
118	2003
118	2020
118	2028
118	2098
118	2142
118	2191
118	2217
118	2224
118	2236
118	2271
118	2292
118	2300
118	2323
118	2330
118	2335
118	2443
118	2501
118	2525
118	2559
118	2613
118	2652
118	2765
118	2856
118	2860
118	2872
118	2917
118	2925
118	2928
118	3008
118	3084
118	3101
118	3141
118	3251
118	3289
118	3593
118	3711
118	3771
118	3863
118	4053
118	4140
118	4150
118	4158
118	4205
118	4209
118	4228
118	4244
118	4283
118	4404
118	4472
118	4519
118	4576
118	4776
118	4853
118	4904
119	134
119	138
119	160
119	182
119	202
119	204
119	208
119	217
119	219
119	230
119	242
119	244
119	246
119	259
119	260
119	264
119	275
119	289
119	290
119	303
119	311
119	338
119	356
119	376
119	385
119	409
119	410
119	439
119	484
119	499
119	524
119	530
119	555
119	560
119	596
119	597
119	608
119	626
119	646
119	705
119	715
119	755
119	772
119	793
119	853
119	855
119	906
119	908
119	920
119	926
119	952
119	981
119	989
119	1011
119	1030
119	1033
119	1046
119	1052
119	1100
119	1131
119	1158
119	1192
119	1198
119	1202
119	1225
119	1243
119	1263
119	1336
119	1425
119	1488
119	1540
119	1561
119	1568
119	1586
119	1589
119	1610
119	1649
119	1658
119	1660
119	1695
119	1719
119	1724
119	1828
119	1875
119	1877
119	1899
119	1928
119	1955
119	2048
119	2109
119	2111
119	2189
119	2421
119	2432
119	2440
119	2444
119	2475
119	2525
119	2528
119	2563
119	2573
119	2574
119	2584
119	2600
119	2665
119	2726
119	2741
119	2749
119	2750
119	2779
119	2855
119	2887
119	2915
119	3067
119	3075
119	3086
119	3105
119	3157
119	3209
119	3214
119	3243
119	3359
119	3384
119	3431
119	3437
119	3488
119	3575
119	3632
119	3646
119	3665
119	3668
119	3983
119	3998
119	4004
119	4253
119	4378
119	4425
119	4553
119	4647
119	4671
119	4711
119	4749
119	4848
119	4897
119	4902
120	121
120	129
120	151
120	187
120	222
120	267
120	269
120	273
120	280
120	284
120	304
120	316
120	328
120	354
120	357
120	414
120	432
120	434
120	475
120	500
120	501
120	544
120	583
120	622
120	643
120	675
120	679
120	697
120	700
120	709
120	748
120	767
120	793
120	797
120	821
120	837
120	861
120	916
120	922
120	974
120	1014
120	1028
120	1147
120	1229
120	1313
120	1376
120	1390
120	1476
120	1642
120	1746
120	1747
120	1787
120	1817
120	1840
120	1870
120	1880
120	1932
120	1934
120	1989
120	2031
120	2071
120	2136
120	2138
120	2158
120	2173
120	2269
120	2474
120	2492
120	2604
120	2647
120	2700
120	2841
120	3012
120	3032
120	3040
120	3124
120	3133
120	3214
120	3236
120	3305
120	3432
120	3445
120	3527
120	3542
120	3585
120	3652
120	3681
120	3842
120	3876
120	3940
120	4005
120	4131
120	4270
120	4328
120	4333
120	4450
120	4765
120	4770
120	4874
120	4900
121	122
121	126
121	134
121	151
121	195
121	220
121	221
121	224
121	225
121	229
121	256
121	280
121	310
121	317
121	448
121	455
121	458
121	480
121	531
121	532
121	538
121	549
121	570
121	574
121	727
121	746
121	815
121	836
121	1059
121	1088
121	1197
121	1253
121	1279
121	1302
121	1495
121	1551
121	1557
121	1627
121	1895
121	1950
121	2031
121	2037
121	2104
121	2135
121	2158
121	2194
121	2344
121	2425
121	2518
121	2763
121	2902
121	2958
121	3138
121	3165
121	3253
121	3577
121	3659
121	3750
121	3873
121	3926
121	4046
121	4134
121	4230
121	4254
121	4291
121	4351
121	4472
121	4563
121	4670
121	4790
121	4819
121	4917
121	4954
121	4991
122	131
122	154
122	198
122	236
122	244
122	270
122	322
122	328
122	465
122	572
122	630
122	634
122	709
122	750
122	1038
122	1141
122	1353
122	1436
122	1462
122	1546
122	1556
122	1600
122	1625
122	1674
122	1822
122	1981
122	1996
122	2025
122	2226
122	2262
122	2380
122	2388
122	2435
122	2497
122	2751
122	3151
122	3171
122	3315
122	3903
122	4089
122	4516
123	146
123	150
123	182
123	189
123	190
123	212
123	223
123	266
123	273
123	295
123	315
123	345
123	362
123	366
123	376
123	377
123	378
123	391
123	395
123	406
123	458
123	466
123	484
123	503
123	537
123	552
123	564
123	574
123	588
123	711
123	719
123	750
123	761
123	802
123	806
123	856
123	885
123	918
123	925
123	941
123	984
123	1043
123	1047
123	1076
123	1267
123	1479
123	1510
123	1555
123	1582
123	1623
123	1711
123	1785
123	1797
123	1808
123	1897
123	2007
123	2037
123	2065
123	2226
123	2231
123	2241
123	2345
123	2394
123	2445
123	2521
123	2528
123	2601
123	2604
123	2744
123	2777
123	2785
123	2791
123	2810
123	2854
123	2873
123	2925
123	2929
123	2930
123	3029
123	3047
123	3148
123	3218
123	3237
123	3335
123	3443
123	3488
123	3509
123	3647
123	3720
123	3743
123	3793
123	3840
123	3992
123	4117
123	4234
123	4453
123	4488
123	4510
123	4511
123	4562
123	4596
123	4703
123	4823
123	4915
123	4983
124	132
124	138
124	147
124	168
124	210
124	223
124	225
124	239
124	255
124	276
124	302
124	312
124	337
124	388
124	404
124	433
124	442
124	468
124	480
124	581
124	603
124	676
124	681
124	704
124	805
124	811
124	812
124	817
124	918
124	924
124	1051
124	1055
124	1173
124	1275
124	1298
124	1317
124	1337
124	1349
124	1389
124	1398
124	1515
124	1545
124	1656
124	1663
124	1668
124	1697
124	1707
124	1722
124	1741
124	1991
124	1999
124	2084
124	2140
124	2204
124	2212
124	2380
124	2398
124	2425
124	2448
124	2480
124	2559
124	2627
124	2697
124	2862
124	2975
124	3030
124	3170
124	3195
124	3218
124	3276
124	3282
124	3547
124	3595
124	3731
124	3800
124	3824
124	3910
124	3987
124	4026
124	4030
124	4232
124	4367
124	4392
124	4663
124	4675
124	4730
124	4732
124	4785
124	4900
124	4923
124	4997
125	130
125	135
125	159
125	161
125	166
125	179
125	198
125	257
125	316
125	318
125	340
125	354
125	415
125	423
125	461
125	486
125	492
125	493
125	498
125	505
125	522
125	523
125	528
125	542
125	608
125	632
125	647
125	654
125	683
125	737
125	824
125	826
125	833
125	839
125	914
125	994
125	1028
125	1058
125	1065
125	1152
125	1188
125	1195
125	1231
125	1296
125	1310
125	1311
125	1496
125	1511
125	1519
125	1567
125	1615
125	1626
125	1730
125	1758
125	1781
125	1789
125	1846
125	1980
125	1981
125	2032
125	2054
125	2062
125	2093
125	2105
125	2112
125	2125
125	2215
125	2267
125	2320
125	2329
125	2361
125	2416
125	2451
125	2463
125	2482
125	2489
125	2548
125	2713
125	2715
125	2744
125	2754
125	2792
125	2834
125	2877
125	2920
125	2948
125	3021
125	3049
125	3076
125	3163
125	3181
125	3369
125	3609
125	3652
125	3755
125	3842
125	3848
125	3863
125	4198
125	4206
125	4361
125	4363
125	4465
125	4588
125	4679
125	4714
125	4831
125	4840
125	4851
125	4939
125	4967
126	165
126	192
126	204
126	234
126	263
126	285
126	415
126	421
126	505
126	516
126	521
126	583
126	698
126	717
126	725
126	881
126	937
126	938
126	956
126	1142
126	1203
126	1259
126	1336
126	1455
126	1509
126	1579
126	1624
126	1709
126	1852
126	2302
126	2436
126	2449
126	2515
126	2611
126	2687
126	2761
126	2775
126	2947
126	2981
126	3020
126	3114
126	3157
126	3208
126	3217
126	3249
126	3280
126	3427
126	3709
126	3710
126	3817
126	3872
126	3902
126	4100
126	4121
126	4192
126	4506
126	4593
126	4761
126	4818
126	4824
126	4978
127	137
127	146
127	152
127	156
127	165
127	169
127	171
127	177
127	187
127	236
127	246
127	272
127	308
127	334
127	344
127	354
127	363
127	410
127	426
127	444
127	477
127	497
127	502
127	612
127	621
127	744
127	781
127	810
127	828
127	853
127	874
127	883
127	908
127	947
127	1152
127	1211
127	1426
127	1439
127	1444
127	1487
127	1629
127	1638
127	1706
127	1755
127	1803
127	1817
127	1832
127	1892
127	1898
127	2057
127	2124
127	2153
127	2237
127	2530
127	2639
127	2648
127	2724
127	2737
127	2741
127	2744
127	2832
127	2874
127	2882
127	2950
127	2952
127	3010
127	3029
127	3105
127	3142
127	3186
127	3276
127	3315
127	3378
127	3399
127	3488
127	3883
127	3915
127	3992
127	4044
127	4181
127	4208
127	4491
127	4691
127	4722
127	4868
127	4881
127	4890
128	134
128	162
128	170
128	171
128	196
128	231
128	251
128	279
128	287
128	333
128	359
128	377
128	387
128	436
128	439
128	451
128	500
128	511
128	610
128	668
128	767
128	789
128	881
128	929
128	985
128	1010
128	1154
128	1155
128	1217
128	1227
128	1272
128	1323
128	1445
128	1511
128	1514
128	1552
128	1597
128	1672
128	1675
128	1747
128	1750
128	1788
128	2000
128	2018
128	2038
128	2103
128	2137
128	2178
128	2191
128	2241
128	2278
128	2382
128	2447
128	2502
128	2640
128	2729
128	2803
128	3043
128	3288
128	3319
128	3468
128	3488
128	3656
128	3820
128	3832
128	3835
128	3852
128	3888
128	3944
128	3965
128	4098
128	4105
128	4129
128	4195
128	4209
128	4283
128	4319
128	4476
128	4511
128	4543
128	4797
128	4855
129	165
129	188
129	222
129	230
129	235
129	250
129	254
129	260
129	261
129	274
129	302
129	310
129	312
129	320
129	326
129	358
129	364
129	429
129	442
129	517
129	550
129	566
129	619
129	643
129	651
129	674
129	680
129	726
129	728
129	740
129	806
129	826
129	832
129	852
129	898
129	939
129	945
129	948
129	1005
129	1012
129	1066
129	1089
129	1132
129	1173
129	1175
129	1178
129	1229
129	1270
129	1329
129	1391
129	1479
129	1537
129	1538
129	1544
129	1663
129	1677
129	1738
129	1754
129	1766
129	1815
129	1834
129	1869
129	1900
129	1966
129	1976
129	2048
129	2053
129	2106
129	2116
129	2137
129	2179
129	2185
129	2274
129	2294
129	2374
129	2400
129	2404
129	2468
129	2549
129	2670
129	2734
129	2776
129	2780
129	2814
129	2887
129	2974
129	2999
129	3024
129	3106
129	3164
129	3173
129	3265
129	3334
129	3512
129	3531
129	3583
129	3601
129	3604
129	3610
129	3663
129	3711
129	3790
129	3802
129	3916
129	3960
129	3981
129	3996
129	4034
129	4057
129	4068
129	4105
129	4157
129	4171
129	4243
129	4466
129	4571
129	4620
129	4697
129	4780
129	4901
129	4912
130	144
130	164
130	166
130	192
130	202
130	223
130	271
130	287
130	314
130	326
130	336
130	360
130	403
130	433
130	461
130	465
130	489
130	578
130	594
130	610
130	611
130	673
130	675
130	680
130	736
130	740
130	750
130	773
130	918
130	919
130	1011
130	1048
130	1122
130	1154
130	1165
130	1214
130	1272
130	1277
130	1293
130	1304
130	1344
130	1360
130	1367
130	1379
130	1480
130	1491
130	1637
130	2042
130	2046
130	2050
130	2061
130	2151
130	2467
130	2487
130	2534
130	2603
130	2616
130	2621
130	2701
130	2852
130	2944
130	3005
130	3035
130	3040
130	3149
130	3152
130	3470
130	3516
130	3545
130	3624
130	3878
130	4032
130	4147
130	4371
130	4384
130	4511
130	4674
130	4869
130	4907
130	4968
131	159
131	169
131	207
131	213
131	244
131	265
131	268
131	319
131	374
131	391
131	545
131	556
131	578
131	800
131	810
131	858
131	867
131	891
131	919
131	932
131	1009
131	1056
131	1125
131	1185
131	1262
131	1294
131	1325
131	1391
131	1429
131	1448
131	1457
131	1468
131	1477
131	1516
131	1691
131	1795
131	1922
131	1983
131	2027
131	2173
131	2350
131	2362
131	2409
131	2461
131	2517
131	2699
131	2715
131	2739
131	2751
131	2823
131	2858
131	3099
131	3104
131	3166
131	3233
131	3270
131	3492
131	3655
131	3850
131	3872
131	3873
131	3907
131	4131
131	4258
131	4286
131	4350
131	4376
131	4719
131	4744
131	4805
131	4811
131	4853
131	4912
132	137
132	140
132	141
132	178
132	184
132	186
132	190
132	191
132	194
132	203
132	242
132	263
132	284
132	310
132	313
132	329
132	355
132	361
132	388
132	396
132	397
132	514
132	534
132	579
132	599
132	625
132	632
132	644
132	647
132	650
132	680
132	702
132	728
132	741
132	846
132	872
132	907
132	908
132	914
132	983
132	1013
132	1028
132	1104
132	1295
132	1336
132	1398
132	1405
132	1425
132	1465
132	1494
132	1517
132	1674
132	1713
132	1798
132	1945
132	2026
132	2064
132	2252
132	2296
132	2407
132	2514
132	2570
132	2585
132	2636
132	2711
132	2724
132	2812
132	2883
132	2967
132	3035
132	3076
132	3154
132	3195
132	3254
132	3255
132	3309
132	3312
132	3379
132	3389
132	3415
132	3418
132	3637
132	3739
132	3823
132	3921
132	3977
132	4029
132	4045
132	4295
132	4524
132	4557
132	4584
132	4612
132	4733
132	4876
132	4898
132	4907
132	4997
133	134
133	188
133	225
133	237
133	263
133	272
133	311
133	312
133	375
133	378
133	394
133	454
133	460
133	499
133	506
133	547
133	555
133	571
133	632
133	667
133	739
133	853
133	1048
133	1049
133	1073
133	1142
133	1172
133	1183
133	1214
133	1220
133	1235
133	1236
133	1241
133	1297
133	1336
133	1385
133	1531
133	1601
133	1651
133	1708
133	1871
133	1875
133	1947
133	1950
133	1964
133	2010
133	2039
133	2093
133	2102
133	2126
133	2148
133	2198
133	2266
133	2286
133	2305
133	2308
133	2419
133	2471
133	2556
133	2875
133	2931
133	3087
133	3101
133	3155
133	3300
133	3302
133	3429
133	3479
133	3685
133	3687
133	3690
133	3799
133	3867
133	3933
133	3968
133	4304
133	4315
133	4358
133	4369
133	4510
133	4560
133	4697
133	4728
133	4783
133	4823
134	168
134	192
134	196
134	207
134	215
134	259
134	333
134	339
134	356
134	386
134	476
134	499
134	695
134	707
134	741
134	764
134	774
134	859
134	922
134	942
134	950
134	991
134	1095
134	1158
134	1248
134	1255
134	1268
134	1329
134	1370
134	1392
134	1397
134	1416
134	1556
134	1592
134	1659
134	1680
134	1710
134	1771
134	1783
134	1838
134	1901
134	2000
134	2125
134	2250
134	2399
134	2661
134	2689
134	2693
134	2827
134	2930
134	2954
134	2990
134	3012
134	3136
134	3418
134	3422
134	3481
134	3819
134	3979
134	4075
134	4175
134	4203
134	4260
134	4406
134	4412
134	4494
134	4620
134	4650
134	4788
134	4796
134	4817
135	155
135	163
135	206
135	213
135	218
135	279
135	319
135	320
135	327
135	329
135	351
135	386
135	390
135	397
135	405
135	450
135	500
135	504
135	542
135	547
135	618
135	623
135	669
135	682
135	740
135	766
135	819
135	929
135	965
135	1014
135	1044
135	1101
135	1102
135	1152
135	1180
135	1321
135	1363
135	1390
135	1465
135	1542
135	1577
135	1629
135	1740
135	1748
135	1787
135	1989
135	2038
135	2113
135	2260
135	2351
135	2358
135	2399
135	2489
135	2617
135	2764
135	2768
135	2793
135	2929
135	2990
135	3011
135	3154
135	3316
135	3320
135	3362
135	3363
135	3396
135	3412
135	3423
135	3685
135	3687
135	3692
135	3741
135	3787
135	3896
135	4043
135	4220
135	4301
135	4336
135	4483
135	4798
136	148
136	160
136	162
136	163
136	168
136	181
136	195
136	208
136	216
136	245
136	255
136	258
136	267
136	276
136	278
136	283
136	291
136	305
136	306
136	308
136	331
136	335
136	356
136	358
136	415
136	436
136	438
136	453
136	661
136	706
136	708
136	748
136	775
136	864
136	979
136	997
136	1000
136	1044
136	1047
136	1108
136	1155
136	1198
136	1388
136	1439
136	1501
136	1539
136	1615
136	1725
136	1762
136	1778
136	1897
136	2008
136	2124
136	2229
136	2243
136	2297
136	2340
136	2371
136	2372
136	2425
136	2528
136	2592
136	2706
136	2709
136	2741
136	2793
136	2867
136	2972
136	2978
136	3053
136	3075
136	3178
136	3188
136	3215
136	3223
136	3269
136	3516
136	3711
136	3735
136	3827
136	3970
136	4171
136	4176
136	4225
136	4294
136	4311
136	4401
136	4449
136	4600
136	4631
136	4831
136	4917
137	150
137	171
137	186
137	192
137	199
137	207
137	239
137	271
137	276
137	280
137	294
137	297
137	315
137	335
137	349
137	364
137	378
137	483
137	493
137	539
137	576
137	592
137	709
137	753
137	765
137	929
137	944
137	1010
137	1064
137	1066
137	1086
137	1158
137	1166
137	1183
137	1244
137	1248
137	1269
137	1270
137	1282
137	1342
137	1384
137	1416
137	1655
137	1707
137	1764
137	1789
137	1820
137	1999
137	2183
137	2198
137	2201
137	2457
137	2541
137	2592
137	2678
137	2955
137	3250
137	3309
137	3347
137	3375
137	3493
137	3630
137	3944
137	3953
137	3959
137	4445
137	4509
137	4615
137	4689
137	4768
137	4777
137	4870
137	4912
138	163
138	197
138	206
138	226
138	229
138	238
138	295
138	350
138	363
138	395
138	414
138	415
138	419
138	470
138	524
138	550
138	735
138	768
138	799
138	861
138	902
138	911
138	1002
138	1096
138	1100
138	1109
138	1140
138	1161
138	1176
138	1177
138	1247
138	1389
138	1397
138	1594
138	1610
138	1622
138	1701
138	1928
138	1943
138	1946
138	2007
138	2048
138	2267
138	2392
138	2426
138	2548
138	2558
138	2883
138	3128
138	3129
138	3152
138	3609
138	4292
138	4333
138	4437
138	4475
138	4688
138	4712
139	164
139	176
139	177
139	189
139	193
139	200
139	205
139	213
139	232
139	233
139	282
139	297
139	359
139	364
139	489
139	576
139	615
139	691
139	715
139	763
139	791
139	873
139	883
139	890
139	893
139	936
139	1048
139	1078
139	1125
139	1407
139	1475
139	1550
139	1556
139	1624
139	1664
139	1675
139	1684
139	1703
139	1768
139	1776
139	1795
139	1814
139	1817
139	1826
139	1964
139	1983
139	2169
139	2238
139	2377
139	2509
139	2660
139	2664
139	2725
139	2787
139	2842
139	2855
139	2896
139	2950
139	2984
139	3081
139	3149
139	3169
139	3188
139	3236
139	3348
139	3411
139	3445
139	3486
139	3695
139	3703
139	3867
139	3885
139	3938
139	4070
139	4114
139	4127
139	4256
139	4436
139	4455
139	4512
139	4569
139	4590
139	4615
139	4720
139	4783
139	4818
139	4871
140	153
140	167
140	176
140	186
140	201
140	244
140	286
140	336
140	339
140	352
140	496
140	503
140	587
140	631
140	649
140	652
140	743
140	762
140	837
140	923
140	979
140	1081
140	1121
140	1156
140	1312
140	1409
140	1531
140	1573
140	1575
140	1580
140	1631
140	1636
140	1645
140	1676
140	1780
140	1788
140	1789
140	1814
140	1844
140	1871
140	1959
140	1985
140	2042
140	2116
140	2222
140	2239
140	2244
140	2254
140	2269
140	2273
140	2281
140	2282
140	2437
140	2506
140	2535
140	2558
140	2624
140	2688
140	2773
140	2777
140	2866
140	2896
140	3022
140	3231
140	3317
140	3373
140	3429
140	3457
140	3595
140	3648
140	3765
140	3893
140	3925
140	3927
140	4022
140	4133
140	4159
140	4175
140	4188
140	4323
140	4428
140	4655
140	4671
140	4684
140	4963
141	233
141	239
141	261
141	268
141	282
141	333
141	342
141	348
141	413
141	419
141	420
141	431
141	448
141	481
141	488
141	508
141	522
141	589
141	592
141	624
141	708
141	756
141	873
141	892
141	930
141	942
141	972
141	996
141	1049
141	1092
141	1108
141	1220
141	1300
141	1317
141	1323
141	1362
141	1365
141	1366
141	1451
141	1461
141	1586
141	1634
141	1699
141	1739
141	2011
141	2058
141	2063
141	2115
141	2153
141	2217
141	2307
141	2381
141	2401
141	2478
141	2517
141	2566
141	2573
141	2733
141	2826
141	2938
141	3016
141	3031
141	3059
141	3106
141	3420
141	3533
141	3568
141	3579
141	3641
141	3807
141	3918
141	3937
141	3959
141	4027
141	4113
141	4131
141	4141
141	4213
141	4723
141	4797
141	4804
141	4826
141	4884
141	4949
141	4960
142	158
142	281
142	333
142	363
142	401
142	449
142	472
142	590
142	606
142	663
142	695
142	752
142	824
142	930
142	1005
142	1141
142	1307
142	1368
142	1437
142	1481
142	1590
142	1597
142	1618
142	1637
142	1735
142	1758
142	1955
142	1975
142	2039
142	2079
142	2138
142	2159
142	2160
142	2218
142	2240
142	2324
142	2358
142	2440
142	2443
142	2456
142	2524
142	2596
142	2897
142	3116
142	3322
142	3412
142	3506
142	3513
142	3555
142	3808
142	3839
142	3856
142	3874
142	3886
142	4006
142	4208
142	4486
142	4822
142	4934
142	4945
143	152
143	156
143	162
143	165
143	191
143	222
143	227
143	230
143	241
143	248
143	266
143	279
143	291
143	323
143	357
143	359
143	378
143	389
143	403
143	408
143	436
143	452
143	453
143	469
143	476
143	498
143	501
143	502
143	505
143	560
143	572
143	580
143	590
143	595
143	600
143	611
143	614
143	622
143	623
143	652
143	693
143	705
143	725
143	735
143	759
143	840
143	876
143	884
143	910
143	913
143	936
143	951
143	972
143	985
143	993
143	1007
143	1021
143	1026
143	1078
143	1094
143	1120
143	1161
143	1171
143	1174
143	1264
143	1278
143	1292
143	1309
143	1329
143	1375
143	1389
143	1392
143	1393
143	1478
143	1482
143	1603
143	1615
143	1633
143	1673
143	1699
143	1719
143	1732
143	1763
143	1782
143	1783
143	1796
143	1828
143	1876
143	1904
143	2060
143	2085
143	2119
143	2216
143	2319
143	2352
143	2396
143	2594
143	2597
143	2635
143	2703
143	2759
143	2817
143	2844
143	2901
143	2910
143	2961
143	2962
143	3012
143	3086
143	3095
143	3111
143	3190
143	3202
143	3259
143	3301
143	3312
143	3338
143	3388
143	3441
143	3453
143	3497
143	3520
143	3547
143	3770
143	3827
143	3843
143	3868
143	3935
143	3939
143	4017
143	4077
143	4091
143	4097
143	4142
143	4164
143	4167
143	4251
143	4287
143	4362
143	4408
143	4482
143	4598
143	4604
143	4714
143	4765
143	4830
143	4833
143	4848
143	4859
143	4924
143	4962
144	156
144	180
144	181
144	269
144	277
144	283
144	315
144	358
144	418
144	424
144	438
144	456
144	470
144	526
144	529
144	591
144	608
144	622
144	662
144	697
144	716
144	741
144	787
144	832
144	886
144	908
144	915
144	1017
144	1029
144	1274
144	1387
144	1403
144	1448
144	1501
144	1528
144	1557
144	1703
144	1804
144	1810
144	1842
144	1871
144	1880
144	1981
144	2109
144	2307
144	2318
144	2521
144	2667
144	2672
144	2739
144	2742
144	2845
144	2889
144	2942
144	3049
144	3290
144	3421
144	3564
144	3682
144	3740
144	3899
144	3965
144	4161
144	4413
144	4498
144	4518
144	4596
144	4848
144	4945
145	153
145	155
145	161
145	172
145	173
145	178
145	190
145	193
145	246
145	247
145	250
145	252
145	253
145	260
145	281
145	293
145	329
145	342
145	348
145	372
145	468
145	497
145	511
145	520
145	524
145	543
145	600
145	620
145	634
145	651
145	681
145	724
145	731
145	776
145	828
145	849
145	863
145	916
145	956
145	1037
145	1066
145	1160
145	1167
145	1194
145	1215
145	1217
145	1236
145	1263
145	1308
145	1456
145	1459
145	1474
145	1586
145	1616
145	1633
145	1709
145	1764
145	1854
145	1935
145	1949
145	2057
145	2059
145	2101
145	2125
145	2137
145	2161
145	2236
145	2379
145	2445
145	2566
145	2682
145	2729
145	2737
145	2757
145	2761
145	2873
145	2883
145	2890
145	2905
145	2949
145	3048
145	3097
145	3196
145	3208
145	3375
145	3486
145	3492
145	3620
145	3643
145	3684
145	3701
145	3780
145	3852
145	3932
145	3967
145	3979
145	4000
145	4026
145	4144
145	4189
145	4211
145	4271
145	4441
145	4694
145	4716
145	4818
145	4828
145	4843
145	4897
146	177
146	196
146	263
146	306
146	577
146	596
146	610
146	656
146	680
146	716
146	744
146	911
146	970
146	1162
146	1370
146	1398
146	1562
146	1577
146	1685
146	2191
146	2212
146	2393
146	2399
146	2483
146	2495
146	2592
146	2640
146	3072
146	3151
146	3177
146	3207
146	3230
146	3251
146	3423
146	3740
146	3785
146	3860
146	3866
146	3998
146	4231
146	4379
146	4505
146	4535
146	4578
146	4661
146	4700
146	4966
147	151
147	202
147	213
147	276
147	352
147	379
147	402
147	491
147	638
147	641
147	682
147	737
147	813
147	815
147	826
147	858
147	949
147	957
147	998
147	1047
147	1076
147	1082
147	1142
147	1184
147	1216
147	1305
147	1327
147	1387
147	1405
147	1453
147	1458
147	1624
147	1654
147	1740
147	1802
147	1860
147	1989
147	2021
147	2275
147	2314
147	2352
147	2420
147	2446
147	2747
147	2854
147	2902
147	2989
147	3082
147	3157
147	3162
147	3175
147	3295
147	3375
147	3467
147	3487
147	4084
147	4113
147	4223
147	4473
147	4709
147	4765
147	4767
147	4851
148	150
148	154
148	169
148	176
148	179
148	184
148	200
148	203
148	210
148	252
148	266
148	324
148	425
148	444
148	464
148	508
148	540
148	577
148	624
148	673
148	716
148	785
148	820
148	829
148	851
148	886
148	957
148	991
148	997
148	1159
148	1173
148	1203
148	1226
148	1291
148	1429
148	1452
148	1506
148	1554
148	1561
148	1581
148	1643
148	1679
148	1696
148	1703
148	1782
148	1783
148	1806
148	1864
148	1919
148	1957
148	2035
148	2078
148	2195
148	2200
148	2215
148	2414
148	2432
148	2488
148	2497
148	2549
148	2594
148	2597
148	2844
148	2867
148	2869
148	3098
148	3235
148	3246
148	3270
148	3338
148	3385
148	3474
148	3571
148	3638
148	3661
148	3674
148	3711
148	3865
148	3889
148	4291
148	4312
148	4329
148	4436
148	4487
148	4573
148	4866
148	4909
148	4928
148	4969
149	158
149	188
149	233
149	260
149	376
149	411
149	416
149	508
149	597
149	607
149	637
149	711
149	728
149	850
149	862
149	968
149	981
149	1014
149	1062
149	1100
149	1106
149	1117
149	1162
149	1236
149	1318
149	1420
149	1465
149	1501
149	1529
149	1609
149	1784
149	2153
149	2283
149	2355
149	2543
149	2596
149	2623
149	2673
149	2682
149	2928
149	3095
149	3337
149	3650
149	3879
149	3978
149	4121
149	4235
149	4287
149	4491
149	4680
149	4694
149	4960
150	174
150	227
150	295
150	305
150	312
150	315
150	353
150	376
150	379
150	388
150	390
150	676
150	684
150	693
150	710
150	720
150	803
150	822
150	897
150	1027
150	1177
150	1204
150	1231
150	1239
150	1538
150	1579
150	1907
150	2096
150	2189
150	2248
150	2287
150	2501
150	2605
150	2683
150	2740
150	2817
150	2871
150	2897
150	2951
150	2993
150	3011
150	3029
150	3465
150	3577
150	3661
150	3672
150	3739
150	4023
150	4491
150	4668
151	182
151	195
151	223
151	264
151	314
151	320
151	328
151	351
151	368
151	376
151	381
151	398
151	420
151	482
151	603
151	623
151	696
151	718
151	746
151	776
151	842
151	883
151	909
151	941
151	1158
151	1213
151	1322
151	1335
151	1360
151	1665
151	1673
151	1759
151	1798
151	1850
151	1980
151	2047
151	2146
151	2243
151	2315
151	2387
151	2443
151	2647
151	2693
151	2829
151	2874
151	2985
151	3180
151	3232
151	3367
151	3389
151	3427
151	3551
151	3681
151	3890
151	4119
151	4253
151	4318
151	4549
151	4697
151	4706
151	4752
151	4759
151	4854
152	158
152	168
152	282
152	323
152	344
152	366
152	468
152	476
152	488
152	569
152	617
152	647
152	709
152	742
152	806
152	828
152	857
152	881
152	885
152	898
152	921
152	924
152	956
152	975
152	995
152	1001
152	1018
152	1076
152	1096
152	1097
152	1106
152	1168
152	1180
152	1188
152	1215
152	1268
152	1283
152	1373
152	1460
152	1463
152	1734
152	1760
152	1821
152	1941
152	1984
152	2096
152	2230
152	2257
152	2263
152	2316
152	2453
152	2459
152	2815
152	2835
152	2850
152	2900
152	2915
152	2930
152	2938
152	2958
152	3114
152	3169
152	3270
152	3574
152	3610
152	3671
152	3709
152	3723
152	3826
152	3962
152	4168
152	4248
152	4751
152	4784
152	4899
152	4910
153	229
153	309
153	344
153	345
153	361
153	391
153	433
153	445
153	616
153	622
153	682
153	835
153	876
153	899
153	1122
153	1168
153	1264
153	1279
153	1355
153	1395
153	1429
153	1436
153	1451
153	1535
153	1538
153	1686
153	1779
153	1811
153	1870
153	1929
153	1988
153	2043
153	2052
153	2056
153	2151
153	2171
153	2306
153	2396
153	2467
153	2574
153	2733
153	2805
153	2821
153	2856
153	2887
153	3347
153	3436
153	3538
153	3763
153	4227
153	4249
153	4294
153	4448
153	4455
153	4609
153	4621
153	4760
153	4795
153	4822
153	4918
154	186
154	224
154	288
154	297
154	301
154	353
154	386
154	394
154	404
154	590
154	599
154	705
154	751
154	875
154	930
154	937
154	997
154	1037
154	1068
154	1080
154	1176
154	1409
154	1497
154	1543
154	1619
154	1621
154	1694
154	1704
154	1729
154	1798
154	1865
154	1879
154	2000
154	2024
154	2075
154	2154
154	2184
154	2195
154	2235
154	2400
154	2608
154	2613
154	2621
154	2866
154	2968
154	3001
154	3074
154	3174
154	3206
154	3368
154	3560
154	3684
154	3752
154	3825
154	4008
154	4042
154	4150
154	4186
154	4344
154	4400
154	4670
154	4681
154	4924
155	159
155	197
155	211
155	231
155	268
155	280
155	333
155	342
155	351
155	352
155	362
155	408
155	448
155	471
155	479
155	541
155	690
155	703
155	711
155	720
155	752
155	762
155	787
155	806
155	899
155	906
155	994
155	1053
155	1086
155	1115
155	1130
155	1165
155	1240
155	1242
155	1266
155	1305
155	1351
155	1448
155	1500
155	1590
155	1779
155	1993
155	2081
155	2099
155	2103
155	2281
155	2314
155	2370
155	2399
155	2438
155	2611
155	2624
155	2657
155	2751
155	2862
155	2885
155	2942
155	3085
155	3147
155	3171
155	3267
155	3274
155	3531
155	3547
155	3554
155	3586
155	3712
155	3739
155	3985
155	4229
155	4318
155	4378
155	4396
155	4468
155	4531
155	4716
155	4754
155	4999
156	195
156	216
156	236
156	273
156	290
156	358
156	362
156	370
156	430
156	489
156	524
156	542
156	543
156	670
156	745
156	806
156	870
156	886
156	892
156	898
156	985
156	1008
156	1088
156	1093
156	1157
156	1178
156	1198
156	1215
156	1230
156	1249
156	1274
156	1292
156	1326
156	1354
156	1376
156	1401
156	1461
156	1472
156	1552
156	1609
156	1649
156	1686
156	1921
156	2011
156	2040
156	2058
156	2156
156	2246
156	2348
156	2357
156	2394
156	2514
156	2523
156	2570
156	2575
156	2639
156	2680
156	2685
156	2705
156	2817
156	2834
156	2962
156	3040
156	3070
156	3075
156	3093
156	3116
156	3141
156	3295
156	3296
156	3307
156	3388
156	3559
156	3578
156	3595
156	3603
156	3645
156	3704
156	3713
156	3764
156	3790
156	3970
156	3990
156	4019
156	4028
156	4115
156	4229
156	4265
156	4271
156	4409
156	4417
156	4419
156	4442
156	4556
156	4572
156	4708
156	4835
157	227
157	269
157	274
157	289
157	304
157	344
157	350
157	447
157	469
157	626
157	655
157	713
157	749
157	808
157	963
157	1121
157	1148
157	1280
157	1432
157	1667
157	1681
157	1751
157	1956
157	2055
157	2097
157	2197
157	2212
157	2242
157	2383
157	2609
157	2647
157	2992
157	3113
157	3233
157	3303
157	3342
157	3543
157	3656
157	3746
157	4138
157	4227
157	4236
157	4334
157	4402
157	4475
157	4651
157	4659
157	4849
157	4970
158	178
158	246
158	252
158	254
158	299
158	330
158	334
158	345
158	347
158	353
158	358
158	372
158	383
158	425
158	428
158	437
158	455
158	515
158	516
158	587
158	741
158	774
158	779
158	781
158	810
158	895
158	926
158	959
158	967
158	984
158	1014
158	1063
158	1091
158	1095
158	1162
158	1226
158	1257
158	1341
158	1412
158	1482
158	1498
158	1545
158	1570
158	1625
158	1634
158	1734
158	1752
158	1961
158	2006
158	2217
158	2406
158	2443
158	2539
158	2661
158	2711
158	2772
158	2801
158	2980
158	3001
158	3027
158	3128
158	3348
158	3389
158	3436
158	3439
158	3473
158	3499
158	3562
158	3655
158	3677
158	3752
158	3792
158	3861
158	3873
158	3894
158	4167
158	4188
158	4191
158	4217
158	4232
158	4237
158	4241
158	4293
158	4326
158	4537
158	4578
158	4730
158	4741
158	4752
158	4786
158	4852
158	4945
159	171
159	178
159	217
159	235
159	248
159	271
159	354
159	393
159	436
159	480
159	624
159	668
159	744
159	820
159	912
159	964
159	968
159	974
159	1022
159	1041
159	1044
159	1210
159	1240
159	1244
159	1298
159	1321
159	1336
159	1355
159	1380
159	1523
159	1595
159	1642
159	1701
159	1770
159	1867
159	1877
159	1991
159	2011
159	2014
159	2075
159	2240
159	2245
159	2267
159	2328
159	2411
159	2526
159	2610
159	2663
159	2675
159	2713
159	2731
159	2985
159	2999
159	3042
159	3130
159	3140
159	3243
159	3355
159	3472
159	3736
159	3854
159	4002
159	4182
159	4201
159	4209
159	4216
159	4284
159	4290
159	4533
159	4546
159	4578
159	4655
159	4895
159	4968
160	173
160	193
160	212
160	249
160	314
160	317
160	326
160	375
160	413
160	474
160	483
160	503
160	583
160	586
160	623
160	684
160	700
160	704
160	734
160	756
160	768
160	771
160	829
160	848
160	868
160	872
160	879
160	971
160	989
160	1060
160	1175
160	1205
160	1227
160	1283
160	1334
160	1339
160	1419
160	1466
160	1557
160	1817
160	1820
160	1834
160	1999
160	2136
160	2363
160	2379
160	2393
160	2408
160	2470
160	2518
160	2571
160	2604
160	2605
160	2615
160	2649
160	2696
160	2714
160	2763
160	2786
160	2838
160	2863
160	2875
160	3014
160	3051
160	3073
160	3113
160	3126
160	3218
160	3293
160	3311
160	3415
160	3425
160	3468
160	3716
160	3728
160	3799
160	3829
160	3866
160	3886
160	3928
160	4065
160	4130
160	4181
160	4221
160	4484
160	4527
160	4673
160	4804
160	4896
160	4942
160	4975
161	162
161	163
161	166
161	170
161	176
161	184
161	193
161	199
161	202
161	205
161	224
161	232
161	251
161	293
161	302
161	339
161	350
161	354
161	373
161	462
161	547
161	566
161	588
161	598
161	649
161	659
161	685
161	691
161	697
161	710
161	723
161	770
161	788
161	798
161	831
161	870
161	1059
161	1086
161	1219
161	1230
161	1238
161	1312
161	1340
161	1433
161	1453
161	1455
161	1515
161	1545
161	1718
161	1726
161	1810
161	1853
161	1885
161	1950
161	1955
161	1993
161	2005
161	2068
161	2078
161	2186
161	2345
161	2359
161	2367
161	2393
161	2450
161	2520
161	2528
161	2813
161	2818
161	2966
161	3006
161	3069
161	3187
161	3203
161	3273
161	3435
161	3495
161	3539
161	3670
161	3677
161	3683
161	3762
161	3790
161	3867
161	3949
161	4012
161	4018
161	4028
161	4071
161	4085
161	4088
161	4169
161	4193
161	4197
161	4244
161	4248
161	4390
161	4432
161	4503
161	4554
161	4716
161	4738
161	4745
161	4798
161	4862
161	4878
161	4953
161	4975
162	164
162	182
162	234
162	246
162	260
162	268
162	316
162	473
162	474
162	497
162	603
162	836
162	952
162	968
162	1324
162	1327
162	1505
162	1512
162	1593
162	1718
162	1787
162	1921
162	2123
162	2165
162	2392
162	2532
162	2599
162	2683
162	2926
162	3279
162	3446
162	3652
162	3710
162	3781
162	4117
162	4754
163	166
163	175
163	191
163	219
163	243
163	247
163	267
163	368
163	371
163	373
163	442
163	443
163	474
163	543
163	582
163	784
163	859
163	1032
163	1072
163	1103
163	1190
163	1207
163	1261
163	1405
163	1429
163	1596
163	1656
163	1785
163	1990
163	2159
163	2195
163	2275
163	2322
163	2372
163	2563
163	2636
163	2816
163	2865
163	3076
163	3150
163	3458
163	3582
163	3725
163	3733
163	3865
163	3937
163	4202
163	4263
163	4268
163	4318
163	4501
163	4796
163	4836
164	412
164	429
164	494
164	654
164	721
164	739
164	746
164	748
164	761
164	889
164	916
164	925
164	959
164	1038
164	1073
164	1126
164	1262
164	1326
164	1380
164	1605
164	1663
164	1742
164	1751
164	2318
164	2321
164	2415
164	2436
164	2738
164	2964
164	3069
164	3140
164	3228
164	3268
164	3277
164	3289
164	3306
164	3433
164	3680
164	3900
164	4212
164	4539
164	4644
164	4717
164	4804
165	173
165	177
165	180
165	197
165	230
165	273
165	283
165	289
165	349
165	379
165	392
165	408
165	479
165	500
165	520
165	613
165	662
165	688
165	766
165	769
165	772
165	826
165	875
165	910
165	930
165	940
165	971
165	991
165	1012
165	1033
165	1115
165	1199
165	1383
165	1422
165	1495
165	1498
165	1584
165	1642
165	1779
165	1915
165	1928
165	1957
165	2033
165	2077
165	2138
165	2161
165	2233
165	2400
165	2464
165	2500
165	2623
165	2694
165	2758
165	2794
165	2840
165	2841
165	3011
165	3020
165	3099
165	3126
165	3179
165	3756
165	3802
165	3833
165	3942
165	3978
165	4014
165	4055
165	4092
165	4199
165	4247
165	4294
165	4426
165	4519
165	4673
165	4863
166	169
166	203
166	241
166	273
166	306
166	365
166	400
166	425
166	435
166	457
166	468
166	532
166	665
166	666
166	672
166	702
166	709
166	712
166	716
166	778
166	826
166	872
166	891
166	902
166	966
166	1018
166	1081
166	1126
166	1140
166	1177
166	1307
166	1469
166	1608
166	1612
166	1617
166	1660
166	1739
166	1778
166	1843
166	1915
166	1953
166	1960
166	2040
166	2057
166	2116
166	2244
166	2318
166	2332
166	2675
166	2697
166	2725
166	2852
166	2886
166	2943
166	3104
166	3113
166	3115
166	3144
166	3232
166	3363
166	3408
166	3481
166	3716
166	3835
166	3848
166	3942
166	4106
166	4140
166	4193
166	4440
166	4464
166	4543
166	4672
166	4776
166	4984
167	172
167	187
167	198
167	200
167	359
167	463
167	619
167	632
167	635
167	722
167	739
167	867
167	888
167	950
167	979
167	1031
167	1054
167	1080
167	1148
167	1384
167	1636
167	1737
167	2157
167	2216
167	2376
167	2428
167	2540
167	2564
167	2720
167	2995
167	3114
167	3210
167	3470
167	3721
167	3723
167	3754
167	3977
167	4237
167	4263
167	4372
167	4541
167	4645
167	4659
167	4919
167	4974
168	171
168	174
168	181
168	182
168	187
168	191
168	194
168	203
168	217
168	226
168	232
168	251
168	275
168	312
168	318
168	324
168	345
168	348
168	356
168	384
168	408
168	433
168	544
168	546
168	555
168	577
168	755
168	783
168	854
168	856
168	874
168	903
168	926
168	937
168	968
168	1039
168	1041
168	1063
168	1067
168	1080
168	1108
168	1157
168	1186
168	1217
168	1258
168	1260
168	1320
168	1323
168	1325
168	1350
168	1437
168	1480
168	1525
168	1544
168	1856
168	1907
168	1993
168	2118
168	2156
168	2163
168	2286
168	2435
168	2467
168	2510
168	2530
168	2678
168	2804
168	2848
168	3036
168	3056
168	3082
168	3224
168	3246
168	3259
168	3265
168	3319
168	3324
168	3382
168	3402
168	3407
168	3427
168	3452
168	3581
168	3612
168	3718
168	3720
168	3868
168	3900
168	3929
168	4094
168	4201
168	4263
168	4379
168	4439
168	4500
168	4548
168	4578
168	4799
168	4891
168	4987
169	180
169	181
169	182
169	212
169	229
169	257
169	264
169	274
169	298
169	308
169	338
169	342
169	362
169	384
169	444
169	448
169	476
169	491
169	493
169	496
169	500
169	559
169	571
169	589
169	628
169	657
169	663
169	687
169	723
169	764
169	793
169	810
169	822
169	838
169	841
169	845
169	860
169	863
169	899
169	951
169	985
169	1009
169	1011
169	1067
169	1098
169	1196
169	1207
169	1235
169	1268
169	1317
169	1320
169	1343
169	1484
169	1546
169	1585
169	1594
169	1618
169	1628
169	1748
169	1799
169	1825
169	1907
169	1908
169	1918
169	1924
169	1932
169	2076
169	2139
169	2220
169	2320
169	2354
169	2503
169	2524
169	2581
169	2724
169	2776
169	2849
169	2912
169	2962
169	3013
169	3092
169	3094
169	3172
169	3226
169	3231
169	3272
169	3437
169	3458
169	3530
169	3628
169	3670
169	3767
169	3827
169	3843
169	3993
169	4018
169	4388
169	4398
169	4501
169	4505
169	4617
169	4632
169	4883
169	4889
169	4965
170	175
170	208
170	253
170	270
170	328
170	501
170	525
170	591
170	630
170	633
170	652
170	661
170	671
170	696
170	730
170	731
170	762
170	785
170	851
170	860
170	867
170	924
170	944
170	1067
170	1089
170	1091
170	1107
170	1190
170	1195
170	1493
170	1608
170	1612
170	1775
170	1817
170	1912
170	1985
170	2116
170	2207
170	2368
170	2428
170	2460
170	2697
170	2839
170	2954
170	3347
170	3688
170	3795
170	3992
170	4001
170	4033
170	4229
170	4250
170	4422
170	4512
170	4573
170	4723
170	4753
170	4889
170	4919
170	4996
171	202
171	229
171	244
171	250
171	296
171	302
171	314
171	353
171	370
171	423
171	430
171	442
171	467
171	562
171	639
171	655
171	718
171	760
171	874
171	958
171	975
171	1058
171	1112
171	1119
171	1248
171	1251
171	1350
171	1383
171	1495
171	1503
171	1559
171	1667
171	1700
171	1771
171	1930
171	1954
171	1976
171	1994
171	2037
171	2107
171	2304
171	2322
171	2442
171	2476
171	2483
171	2591
171	2657
171	2858
171	3013
171	3167
171	3220
171	3372
171	3420
171	3438
171	3568
171	3622
171	3659
171	3685
171	3847
171	3938
171	3959
171	4055
171	4067
171	4103
171	4138
171	4243
171	4289
171	4303
171	4343
171	4381
171	4487
171	4617
172	199
172	210
172	212
172	261
172	423
172	459
172	466
172	473
172	531
172	533
172	535
172	543
172	578
172	621
172	649
172	655
172	796
172	842
172	893
172	1001
172	1084
172	1182
172	1194
172	1276
172	1387
172	2046
172	2062
172	2229
172	2230
172	2547
172	2590
172	2687
172	2723
172	2812
172	3067
172	3208
172	3229
172	3355
172	3469
172	3728
172	4090
172	4491
172	4972
173	193
173	195
173	211
173	236
173	296
173	301
173	313
173	327
173	332
173	366
173	379
173	416
173	431
173	457
173	531
173	541
173	560
173	573
173	603
173	791
173	820
173	1091
173	1208
173	1246
173	1274
173	1287
173	1301
173	1322
173	1325
173	1350
173	1359
173	1371
173	1401
173	1453
173	1472
173	1505
173	1525
173	1532
173	1548
173	1560
173	1564
173	1637
173	1651
173	1660
173	1680
173	1731
173	1772
173	1780
173	1892
173	2042
173	2100
173	2145
173	2178
173	2221
173	2226
173	2458
173	2487
173	2497
173	2644
173	2645
173	2742
173	2796
173	2799
173	2824
173	2833
173	2838
173	2875
173	2908
173	3005
173	3029
173	3119
173	3152
173	3194
173	3246
173	3407
173	3570
173	3616
173	3667
173	3686
173	3741
173	3819
173	3939
173	3940
173	4000
173	4008
173	4029
173	4074
173	4282
173	4543
173	4581
173	4640
173	4682
173	4819
173	4826
173	4935
174	184
174	238
174	288
174	343
174	371
174	399
174	405
174	428
174	519
174	569
174	688
174	727
174	745
174	799
174	862
174	962
174	1001
174	1039
174	1293
174	1336
174	1426
174	1723
174	1732
174	1974
174	2094
174	2167
174	2241
174	2276
174	2465
174	2568
174	2572
174	2627
174	2716
174	2762
174	3017
174	3180
174	3233
174	3308
174	3348
174	4204
174	4291
174	4520
174	4804
174	4855
175	195
175	207
175	219
175	255
175	274
175	292
175	312
175	316
175	351
175	381
175	418
175	456
175	465
175	478
175	556
175	563
175	616
175	654
175	694
175	764
175	834
175	849
175	949
175	962
175	1071
175	1175
175	1319
175	1332
175	1462
175	1502
175	1682
175	1890
175	1931
175	1959
175	2192
175	2272
175	2309
175	2519
175	2643
175	2798
175	2841
175	2870
175	2919
175	2930
175	3104
175	3193
175	3332
175	3383
175	3417
175	3580
175	3726
175	3781
175	3841
175	4023
175	4417
175	4491
175	4538
175	4670
175	4787
175	4875
175	4953
176	191
176	199
176	233
176	237
176	250
176	251
176	301
176	321
176	384
176	428
176	511
176	514
176	516
176	552
176	592
176	604
176	634
176	694
176	695
176	755
176	829
176	845
176	864
176	920
176	941
176	1031
176	1071
176	1085
176	1153
176	1225
176	1234
176	1272
176	1445
176	1470
176	1523
176	1553
176	1554
176	1602
176	1627
176	1674
176	1713
176	1849
176	1854
176	1892
176	1907
176	1984
176	2024
176	2148
176	2168
176	2211
176	2377
176	2406
176	2416
176	2464
176	2495
176	2561
176	2630
176	2638
176	2713
176	2998
176	3036
176	3132
176	3149
176	3279
176	3295
176	3417
176	3418
176	3727
176	3792
176	3857
176	4000
176	4055
176	4278
176	4427
176	4442
176	4566
176	4626
176	4723
176	4745
176	4881
177	183
177	202
177	208
177	293
177	296
177	312
177	325
177	423
177	426
177	462
177	469
177	530
177	534
177	608
177	625
177	662
177	667
177	800
177	868
177	902
177	967
177	1032
177	1157
177	1224
177	1226
177	1268
177	1320
177	1321
177	1363
177	1467
177	1477
177	1541
177	1613
177	1703
177	1716
177	1727
177	1771
177	1774
177	2290
177	2305
177	2578
177	3037
177	3058
177	3421
177	3536
177	3822
177	4059
177	4144
177	4638
177	4706
177	4773
177	4774
177	4971
178	220
178	265
178	291
178	360
178	371
178	396
178	433
178	455
178	490
178	495
178	514
178	539
178	575
178	695
178	703
178	774
178	817
178	833
178	904
178	905
178	961
178	1036
178	1123
178	1127
178	1209
178	1278
178	1335
178	1397
178	1530
178	1571
178	1621
178	1633
178	1728
178	1762
178	1794
178	1835
178	1857
178	1946
178	2111
178	2317
178	2332
178	2361
178	2427
178	2462
178	2513
178	2516
178	2619
178	2814
178	2859
178	2907
178	2943
178	3023
178	3075
178	3087
178	3299
178	3761
178	3916
178	3972
178	4021
178	4143
178	4466
178	4504
178	4581
178	4706
178	4857
179	190
179	240
179	324
179	326
179	334
179	392
179	450
179	472
179	528
179	538
179	552
179	615
179	707
179	801
179	835
179	846
179	911
179	912
179	946
179	992
179	1057
179	1070
179	1157
179	1381
179	1422
179	1711
179	1858
179	1872
179	1962
179	2065
179	2068
179	2107
179	2134
179	2157
179	2159
179	2170
179	2185
179	2216
179	2218
179	2483
179	2734
179	2742
179	2837
179	2839
179	2849
179	2959
179	2995
179	3316
179	3454
179	3506
179	3528
179	3544
179	3563
179	3601
179	3625
179	3675
179	3718
179	3736
179	3753
179	3829
179	3842
179	3856
179	3950
179	3992
179	4043
179	4049
179	4055
179	4311
179	4397
179	4504
179	4536
179	4582
179	4677
179	4720
180	220
180	263
180	370
180	388
180	412
180	482
180	536
180	538
180	613
180	630
180	685
180	782
180	798
180	940
180	1010
180	1059
180	1099
180	1107
180	1116
180	1160
180	1262
180	1308
180	1322
180	1367
180	1576
180	1644
180	1760
180	2086
180	2133
180	2152
180	2196
180	2330
180	2390
180	2420
180	2433
180	2503
180	2521
180	2878
180	2946
180	3076
180	3133
180	3169
180	3212
180	3242
180	3565
180	3645
180	3814
180	3823
180	4062
180	4191
181	200
181	207
181	218
181	257
181	328
181	330
181	402
181	407
181	564
181	690
181	712
181	740
181	743
181	795
181	809
181	910
181	930
181	978
181	1071
181	1078
181	1085
181	1262
181	1286
181	1317
181	1407
181	1486
181	1526
181	1593
181	1601
181	1605
181	1616
181	1640
181	1689
181	1757
181	1778
181	1779
181	1819
181	1907
181	1911
181	2001
181	2024
181	2073
181	2249
181	2572
181	2576
181	2629
181	2674
181	2756
181	2782
181	2862
181	3133
181	3136
181	3168
181	3261
181	3522
181	3541
181	3550
181	3614
181	3678
181	3789
181	3844
181	3855
181	3909
181	4121
181	4384
181	4450
181	4492
181	4531
181	4709
181	4800
182	183
182	198
182	201
182	245
182	252
182	255
182	262
182	291
182	303
182	309
182	434
182	438
182	491
182	501
182	550
182	594
182	596
182	604
182	635
182	646
182	666
182	677
182	679
182	726
182	738
182	751
182	756
182	804
182	838
182	839
182	850
182	891
182	910
182	965
182	985
182	987
182	989
182	1049
182	1081
182	1201
182	1252
182	1280
182	1314
182	1319
182	1381
182	1451
182	1501
182	1522
182	1526
182	1527
182	1546
182	1629
182	1855
182	1959
182	2171
182	2175
182	2198
182	2238
182	2282
182	2346
182	2482
182	2532
182	2583
182	2688
182	2746
182	2797
182	2814
182	2882
182	2904
182	2951
182	3010
182	3082
182	3139
182	3243
182	3252
182	3297
182	3323
182	3358
182	3373
182	3376
182	3384
182	3520
182	3579
182	3660
182	3688
182	3726
182	3730
182	3784
182	3797
182	3804
182	4268
182	4356
182	4438
182	4441
182	4443
182	4534
182	4631
182	4733
182	4756
182	4794
182	4796
182	4886
182	4902
182	4976
183	184
183	201
183	276
183	367
183	410
183	430
183	612
183	680
183	763
183	789
183	819
183	1021
183	1032
183	1050
183	1222
183	1532
183	2083
183	2085
183	2121
183	2128
183	2225
183	2441
183	2489
183	2526
183	2571
183	2602
183	2850
183	3163
183	3233
183	3837
183	3854
183	3859
183	4118
183	4258
183	4857
184	441
184	447
184	730
184	738
184	742
184	806
184	841
184	877
184	1076
184	1098
184	1184
184	1511
184	1655
184	1808
184	1837
184	1845
184	1851
184	1863
184	2059
184	2061
184	2073
184	2149
184	2157
184	2392
184	2809
184	2867
184	2869
184	3054
184	3578
184	4007
184	4138
184	4306
184	4752
184	4792
184	4838
185	189
185	213
185	215
185	265
185	301
185	308
185	315
185	318
185	409
185	416
185	442
185	446
185	464
185	490
185	498
185	567
185	602
185	608
185	614
185	621
185	660
185	755
185	857
185	954
185	1050
185	1235
185	1275
185	1329
185	1362
185	1460
185	1464
185	1511
185	1586
185	1595
185	1705
185	1712
185	2103
185	2150
185	2377
185	2465
185	2477
185	2520
185	2667
185	2672
185	2934
185	2938
185	3002
185	3106
185	3130
185	3214
185	3314
185	3829
185	3935
185	4264
185	4280
185	4642
185	4661
185	4914
186	198
186	218
186	223
186	304
186	392
186	438
186	536
186	558
186	611
186	659
186	660
186	662
186	669
186	711
186	777
186	1051
186	1083
186	1124
186	1173
186	1223
186	1291
186	1341
186	1382
186	1437
186	1474
186	1503
186	1532
186	1654
186	1745
186	1888
186	1933
186	2022
186	2362
186	2489
186	2544
186	2755
186	2842
186	2916
186	2918
186	2924
186	2940
186	3155
186	3303
186	3518
186	3539
186	3586
186	3631
186	3845
186	4112
186	4394
186	4437
186	4487
186	4491
186	4572
186	4699
186	4710
186	4763
186	4806
187	190
187	192
187	207
187	210
187	225
187	267
187	293
187	307
187	320
187	323
187	329
187	343
187	380
187	415
187	430
187	455
187	461
187	506
187	526
187	545
187	672
187	673
187	713
187	725
187	773
187	789
187	866
187	955
187	1031
187	1051
187	1066
187	1085
187	1154
187	1224
187	1239
187	1341
187	1381
187	1391
187	1445
187	1447
187	1486
187	1535
187	1573
187	1615
187	1722
187	1743
187	1745
187	1801
187	1824
187	1860
187	1876
187	1882
187	1887
187	1914
187	1985
187	2084
187	2101
187	2255
187	2304
187	2510
187	2557
187	2644
187	2686
187	2706
187	2721
187	2775
187	2832
187	2855
187	2942
187	2970
187	3012
187	3017
187	3081
187	3140
187	3246
187	3264
187	3360
187	3421
187	3441
187	3636
187	3847
187	3893
187	4002
187	4080
187	4137
187	4373
187	4422
187	4423
187	4484
187	4866
188	202
188	234
188	258
188	282
188	318
188	320
188	328
188	399
188	444
188	458
188	533
188	538
188	712
188	721
188	767
188	807
188	869
188	908
188	1006
188	1015
188	1024
188	1137
188	1160
188	1251
188	1271
188	1360
188	1434
188	1521
188	1541
188	1736
188	2035
188	2147
188	2237
188	2340
188	2413
188	2422
188	2713
188	2738
188	2763
188	2843
188	2847
188	3057
188	3081
188	3164
188	3198
188	3330
188	3919
188	3946
188	3973
188	4001
188	4019
188	4118
188	4221
188	4362
188	4364
188	4670
188	4696
188	4748
188	4809
189	198
189	200
189	209
189	224
189	255
189	257
189	258
189	290
189	321
189	355
189	399
189	446
189	515
189	528
189	542
189	595
189	617
189	753
189	791
189	962
189	1124
189	1147
189	1162
189	1226
189	1227
189	1241
189	1243
189	1309
189	1336
189	1343
189	1492
189	1511
189	1523
189	1565
189	1817
189	1865
189	1921
189	1925
189	1928
189	1948
189	2020
189	2027
189	2075
189	2091
189	2101
189	2142
189	2143
189	2316
189	2317
189	2429
189	2479
189	2638
189	2639
189	2654
189	2702
189	2821
189	2828
189	2866
189	2869
189	2949
189	3171
189	3331
189	3424
189	3497
189	3693
189	3792
189	3912
189	3968
189	4136
189	4195
189	4856
189	4906
190	225
190	256
190	287
190	295
190	311
190	385
190	481
190	493
190	589
190	721
190	743
190	746
190	783
190	795
190	812
190	901
190	994
190	1199
190	1237
190	1287
190	1489
190	1576
190	1610
190	1749
190	1799
190	1912
190	2030
190	2923
190	3439
190	3442
190	3565
190	4035
190	4218
190	4303
190	4413
190	4475
190	4522
190	4826
190	4852
190	4983
191	194
191	197
191	198
191	235
191	245
191	285
191	286
191	302
191	334
191	382
191	391
191	400
191	420
191	433
191	463
191	474
191	479
191	510
191	608
191	615
191	619
191	702
191	739
191	767
191	817
191	900
191	1093
191	1147
191	1241
191	1298
191	1309
191	1367
191	1483
191	1775
191	1845
191	1952
191	1953
191	2025
191	2320
191	2512
191	2530
191	2902
191	3043
191	3176
191	3197
191	3294
191	3328
191	3508
191	3794
191	4078
191	4184
191	4276
191	4462
191	4594
191	4599
191	4874
191	4962
192	261
192	285
192	289
192	357
192	363
192	368
192	450
192	453
192	503
192	596
192	621
192	760
192	777
192	779
192	800
192	825
192	849
192	864
192	881
192	895
192	932
192	981
192	1069
192	1076
192	1170
192	1277
192	1342
192	1369
192	1471
192	1577
192	1583
192	1742
192	1755
192	1764
192	1790
192	1804
192	1859
192	1918
192	1937
192	1968
192	2021
192	2094
192	2209
192	2215
192	2223
192	2236
192	2392
192	2416
192	2507
192	2729
192	2786
192	2890
192	3013
192	3321
192	3324
192	3654
192	3739
192	3743
192	3864
192	4020
192	4039
192	4054
192	4075
192	4166
192	4274
192	4324
192	4396
192	4521
192	4653
192	4809
193	214
193	215
193	260
193	275
193	440
193	454
193	508
193	591
193	685
193	714
193	795
193	993
193	1192
193	1256
193	1359
193	1654
193	1677
193	1687
193	1754
193	2030
193	2080
193	2152
193	2347
193	2392
193	2438
193	2519
193	2616
193	2648
193	2701
193	2865
193	3114
193	3121
193	3528
193	3684
193	3780
193	3901
193	4119
193	4130
193	4365
193	4376
193	4719
193	4996
194	220
194	226
194	410
194	429
194	643
194	735
194	794
194	907
194	1089
194	1117
194	1130
194	1184
194	1246
194	1248
194	1361
194	1508
194	1660
194	1689
194	1714
194	1730
194	1756
194	1852
194	1979
194	2036
194	2304
194	2389
194	2435
194	2640
194	2875
194	3282
194	3772
194	3811
194	3845
194	3999
194	4111
194	4230
194	4298
194	4483
194	4591
194	4625
194	4660
194	4746
195	237
195	254
195	265
195	266
195	288
195	292
195	300
195	306
195	317
195	319
195	328
195	406
195	426
195	434
195	439
195	486
195	519
195	524
195	529
195	626
195	662
195	710
195	753
195	777
195	787
195	791
195	808
195	816
195	853
195	915
195	919
195	929
195	986
195	1005
195	1019
195	1100
195	1205
195	1241
195	1299
195	1390
195	1395
195	1400
195	1487
195	1495
195	1521
195	1638
195	1686
195	1741
195	1748
195	1750
195	1824
195	2028
195	2036
195	2051
195	2156
195	2168
195	2186
195	2237
195	2333
195	2352
195	2402
195	2406
195	2477
195	2504
195	2526
195	2667
195	2722
195	2897
195	3106
195	3127
195	3180
195	3183
195	3386
195	3493
195	3511
195	3528
195	3638
195	3771
195	3796
195	3826
195	3878
195	3962
195	3989
195	3994
195	4036
195	4045
195	4107
195	4171
195	4245
195	4419
195	4467
195	4480
195	4519
195	4536
195	4615
195	4714
195	4780
195	4973
196	226
196	255
196	293
196	406
196	418
196	480
196	513
196	799
196	814
196	933
196	949
196	981
196	983
196	984
196	1020
196	1110
196	1119
196	1156
196	1263
196	1495
196	1628
196	1663
196	2007
196	2084
196	2113
196	2165
196	2199
196	2274
196	2365
196	2452
196	2495
196	2607
196	2661
196	2719
196	2740
196	2831
196	2901
196	3067
196	3106
196	3238
196	3349
196	3385
196	3431
196	3745
196	3814
196	3960
196	4197
196	4238
196	4260
196	4518
196	4584
196	4869
196	4938
197	258
197	361
197	395
197	474
197	501
197	516
197	634
197	657
197	818
197	843
197	908
197	986
197	1117
197	1138
197	1277
197	1297
197	1299
197	1417
197	1464
197	1611
197	1616
197	1683
197	1758
197	1982
197	2054
197	2069
197	2121
197	2230
197	2258
197	2317
197	2375
197	2403
197	2438
197	2516
197	2923
197	2953
197	2972
197	2975
197	3118
197	3147
197	3217
197	3257
197	3292
197	3610
197	3727
197	3772
197	3986
197	4154
197	4268
197	4485
197	4584
197	4608
198	201
198	231
198	289
198	379
198	398
198	593
198	629
198	633
198	677
198	691
198	697
198	705
198	715
198	777
198	816
198	843
198	919
198	958
198	1034
198	1092
198	1109
198	1143
198	1208
198	1353
198	1421
198	1525
198	1571
198	1581
198	1659
198	1958
198	2063
198	2365
198	2399
198	2433
198	2451
198	2558
198	2667
198	2835
198	3083
198	3210
198	3319
198	3499
198	3533
198	3629
198	3689
198	3879
198	4006
198	4203
198	4297
198	4311
198	4494
198	4985
199	210
199	217
199	240
199	288
199	296
199	305
199	307
199	310
199	346
199	350
199	370
199	380
199	382
199	391
199	434
199	444
199	530
199	601
199	630
199	635
199	638
199	758
199	816
199	835
199	840
199	919
199	944
199	969
199	973
199	1015
199	1028
199	1035
199	1050
199	1183
199	1247
199	1264
199	1303
199	1310
199	1359
199	1412
199	1427
199	1530
199	1586
199	1601
199	1745
199	1746
199	1843
199	1896
199	1897
199	1985
199	2055
199	2075
199	2280
199	2284
199	2341
199	2421
199	2588
199	2640
199	2718
199	2761
199	2778
199	2876
199	3026
199	3030
199	3109
199	3191
199	3257
199	3570
199	3720
199	3926
199	3958
199	4035
199	4096
199	4109
199	4166
199	4273
199	4296
199	4323
199	4545
199	4597
199	4678
199	4823
199	4995
200	216
200	225
200	276
200	305
200	351
200	352
200	439
200	455
200	473
200	485
200	513
200	519
200	546
200	565
200	585
200	589
200	627
200	753
200	794
200	827
200	840
200	908
200	974
200	1011
200	1067
200	1099
200	1122
200	1152
200	1252
200	1263
200	1264
200	1301
200	1340
200	1360
200	1369
200	1377
200	1398
200	1421
200	1465
200	1468
200	1521
200	1670
200	1689
200	1700
200	1702
200	1761
200	1816
200	1818
200	1906
200	1986
200	1992
200	2058
200	2111
200	2130
200	2138
200	2321
200	2606
200	2648
200	2674
200	2765
200	2806
200	2996
200	3000
200	3014
200	3057
200	3213
200	3272
200	3354
200	3380
200	3434
200	3444
200	3484
200	3682
200	3842
200	3964
200	4025
200	4149
200	4301
200	4355
200	4378
200	4425
200	4436
200	4497
200	4516
200	4554
200	4557
200	4671
200	4693
200	4702
200	4753
200	4837
200	4870
200	4928
200	4970
200	4986
201	204
201	244
201	272
201	291
201	353
201	375
201	408
201	428
201	452
201	543
201	549
201	655
201	674
201	714
201	729
201	754
201	758
201	798
201	823
201	839
201	859
201	863
201	934
201	995
201	1152
201	1180
201	1201
201	1227
201	1253
201	1267
201	1381
201	1399
201	1786
201	1843
201	1924
201	1981
201	2060
201	2093
201	2176
201	2206
201	2259
201	2326
201	2361
201	2420
201	2425
201	2475
201	2578
201	2726
201	3054
201	3067
201	3252
201	3406
201	3529
201	3718
201	3750
201	3764
201	4040
201	4184
201	4214
201	4735
201	4843
201	4908
201	4942
201	4944
202	261
202	269
202	326
202	359
202	362
202	364
202	370
202	465
202	506
202	527
202	602
202	669
202	684
202	840
202	976
202	986
202	992
202	1014
202	1051
202	1117
202	1181
202	1212
202	1284
202	1303
202	1364
202	1420
202	1536
202	1601
202	1627
202	1675
202	1681
202	1686
202	1825
202	1841
202	1945
202	2176
202	2177
202	2308
202	2414
202	2488
202	2607
202	2761
202	2836
202	2903
202	2941
202	3002
202	3049
202	3487
202	3503
202	3675
202	3750
202	3769
202	3851
202	3912
202	3954
202	3997
202	4027
202	4190
202	4192
202	4487
202	4707
202	4754
202	4765
202	4870
203	220
203	277
203	305
203	313
203	320
203	340
203	518
203	563
203	635
203	664
203	702
203	732
203	741
203	760
203	816
203	873
203	887
203	926
203	970
203	971
203	993
203	1009
203	1137
203	1191
203	1204
203	1216
203	1233
203	1263
203	1338
203	1459
203	1561
203	1635
203	1643
203	1660
203	1687
203	1956
203	2003
203	2103
203	2115
203	2387
203	2430
203	2511
203	2516
203	2782
203	2787
203	2801
203	3080
203	3202
203	3253
203	3268
203	3281
203	3384
203	3515
203	3544
203	3712
203	3723
203	3745
203	3790
203	4106
203	4130
203	4132
203	4257
203	4319
203	4343
203	4937
203	4942
203	4966
204	211
204	216
204	350
204	357
204	369
204	381
204	382
204	498
204	554
204	590
204	637
204	645
204	661
204	672
204	681
204	682
204	687
204	708
204	759
204	769
204	775
204	806
204	807
204	934
204	966
204	1198
204	1267
204	1369
204	1371
204	1396
204	1506
204	1547
204	1599
204	1751
204	1836
204	2044
204	2074
204	2449
204	2511
204	2655
204	2678
204	2862
204	2866
204	2883
204	2891
204	2964
204	2970
204	3075
204	3144
204	3215
204	3291
204	3598
204	3798
204	3851
204	3946
204	4091
204	4146
204	4171
204	4198
204	4413
204	4601
204	4634
204	4865
204	4957
205	215
205	225
205	297
205	319
205	320
205	345
205	349
205	401
205	413
205	426
205	430
205	432
205	527
205	609
205	634
205	658
205	681
205	687
205	734
205	784
205	856
205	867
205	899
205	918
205	922
205	965
205	1082
205	1132
205	1157
205	1203
205	1256
205	1310
205	1445
205	1551
205	1589
205	1616
205	2119
205	2268
205	2272
205	2296
205	2317
205	2560
205	2585
205	2609
205	2697
205	2704
205	2735
205	2742
205	2764
205	2923
205	3162
205	3191
205	3404
205	3502
205	3564
205	3677
205	3688
205	3702
205	3799
205	3894
205	3946
205	3978
205	4070
205	4370
205	4407
205	4571
205	4708
205	4861
205	4891
205	4895
205	4948
205	4963
205	4964
206	209
206	223
206	226
206	256
206	362
206	380
206	449
206	476
206	534
206	553
206	572
206	581
206	640
206	655
206	683
206	690
206	728
206	847
206	933
206	1035
206	1114
206	1175
206	1241
206	1509
206	1614
206	1745
206	1933
206	1999
206	2082
206	2137
206	2212
206	2312
206	2330
206	2340
206	2401
206	2883
206	2964
206	3377
206	4192
206	4228
206	4340
206	4528
206	4587
206	4597
206	4627
206	4753
207	335
207	349
207	352
207	429
207	465
207	498
207	518
207	525
207	688
207	697
207	786
207	796
207	836
207	945
207	1046
207	1162
207	1203
207	1204
207	1233
207	1313
207	1358
207	1364
207	1404
207	1497
207	2014
207	2105
207	2276
207	2311
207	2433
207	2621
207	3037
207	3057
207	3371
207	3397
207	3504
207	3773
207	3912
207	3971
207	4343
207	4682
207	4753
207	4913
208	258
208	280
208	287
208	307
208	309
208	363
208	384
208	485
208	525
208	557
208	638
208	676
208	739
208	762
208	841
208	879
208	918
208	961
208	979
208	1041
208	1080
208	1098
208	1261
208	1262
208	1266
208	1289
208	1303
208	1388
208	1492
208	1518
208	1611
208	1799
208	1939
208	1951
208	2032
208	2059
208	2096
208	2305
208	2358
208	2411
208	2533
208	2540
208	2543
208	2651
208	2664
208	2701
208	2724
208	2811
208	2831
208	2975
208	3131
208	3211
208	3285
208	3343
208	3413
208	3466
208	3490
208	3491
208	3599
208	3633
208	3654
208	3655
208	3666
208	3692
208	3702
208	3753
208	3891
208	3931
208	3965
208	4092
208	4213
208	4226
208	4310
208	4323
208	4867
208	4881
209	223
209	228
209	230
209	247
209	287
209	341
209	368
209	457
209	662
209	822
209	917
209	927
209	956
209	990
209	1059
209	1061
209	1123
209	1131
209	1240
209	1261
209	1315
209	1340
209	1391
209	1429
209	1442
209	1503
209	1658
209	1874
209	1927
209	2013
209	2288
209	2343
209	2386
209	2446
209	2493
209	2556
209	2603
209	2623
209	2859
209	2931
209	3110
209	3280
209	3294
209	3335
209	3350
209	3369
209	3552
209	3611
209	3720
209	3812
209	4281
209	4333
209	4528
209	4742
209	4775
209	4888
210	253
210	290
210	304
210	315
210	318
210	330
210	333
210	381
210	505
210	511
210	535
210	564
210	589
210	642
210	657
210	712
210	736
210	786
210	953
210	963
210	1190
210	1238
210	1248
210	1327
210	1407
210	1428
210	1460
210	1463
210	1492
210	1522
210	1553
210	1589
210	1684
210	1742
210	2012
210	2218
210	2292
210	2426
210	2570
210	2628
210	2682
210	2689
210	2784
210	2832
210	2886
210	3131
210	3201
210	3283
210	3525
210	3537
210	3800
210	3810
210	4043
210	4137
210	4292
210	4296
210	4367
210	4507
210	4755
211	220
211	227
211	231
211	259
211	301
211	362
211	378
211	391
211	405
211	428
211	459
211	720
211	725
211	727
211	729
211	769
211	786
211	790
211	819
211	911
211	928
211	991
211	1198
211	1225
211	1313
211	1394
211	1396
211	1403
211	1456
211	1481
211	1604
211	1622
211	1712
211	1727
211	1839
211	1878
211	1881
211	1884
211	1899
211	1944
211	1969
211	1996
211	2039
211	2124
211	2150
211	2160
211	2170
211	2185
211	2480
211	2568
211	2592
211	2656
211	2658
211	2700
211	2716
211	2750
211	2766
211	2841
211	2863
211	2977
211	3008
211	3073
211	3133
211	3319
211	3324
211	3429
211	3440
211	3566
211	3633
211	3663
211	3692
211	3700
211	3708
211	3714
211	3847
211	3889
211	3912
211	3922
211	3967
211	4140
211	4230
211	4322
211	4488
211	4517
211	4556
211	4826
211	4886
211	4909
211	4921
211	4993
212	244
212	336
212	343
212	425
212	499
212	541
212	545
212	631
212	656
212	718
212	722
212	744
212	1007
212	1034
212	1114
212	1116
212	1278
212	1458
212	1784
212	1814
212	1867
212	1920
212	1924
212	1925
212	1939
212	2033
212	2183
212	2431
212	2455
212	2965
212	3371
212	3452
212	3730
212	3780
212	3963
212	4005
212	4205
212	4279
212	4610
212	4880
212	4937
213	235
213	272
213	306
213	332
213	358
213	383
213	501
213	504
213	515
213	584
213	698
213	739
213	747
213	769
213	968
213	1047
213	1092
213	1129
213	1211
213	1295
213	1462
213	1596
213	1718
213	2000
213	2136
213	2364
213	2440
213	2461
213	2742
213	2860
213	2994
213	3154
213	3161
213	3211
213	3308
213	3376
213	3393
213	3409
213	3445
213	3450
213	3511
213	3653
213	3741
213	3813
213	3948
213	3954
213	4016
213	4102
213	4158
213	4172
213	4179
213	4207
213	4340
213	4511
213	4518
213	4534
213	4712
213	4730
213	4824
214	217
214	254
214	262
214	331
214	335
214	344
214	358
214	369
214	374
214	485
214	515
214	516
214	624
214	629
214	645
214	698
214	721
214	731
214	750
214	752
214	753
214	768
214	932
214	938
214	994
214	999
214	1032
214	1040
214	1049
214	1180
214	1314
214	1421
214	1442
214	1455
214	1482
214	1562
214	1620
214	1656
214	1773
214	1784
214	1818
214	1849
214	1858
214	1862
214	1992
214	2052
214	2080
214	2081
214	2144
214	2149
214	2173
214	2237
214	2254
214	2298
214	2358
214	2394
214	2403
214	2428
214	2435
214	2551
214	2697
214	3024
214	3072
214	3132
214	3221
214	3509
214	3670
214	3860
214	3944
214	4065
214	4096
214	4750
214	4790
214	4886
215	237
215	255
215	316
215	560
215	561
215	582
215	777
215	1004
215	1177
215	1476
215	1735
215	1924
215	2681
215	2714
215	2918
215	2949
215	2962
215	2987
215	3312
215	3519
215	3762
215	3765
215	3785
215	4887
215	4973
216	233
216	235
216	250
216	333
216	387
216	457
216	469
216	527
216	534
216	678
216	679
216	719
216	734
216	748
216	779
216	863
216	893
216	986
216	1007
216	1010
216	1060
216	1067
216	1090
216	1116
216	1226
216	1227
216	1247
216	1345
216	1445
216	1540
216	1623
216	1727
216	1731
216	1876
216	1983
216	2004
216	2009
216	2013
216	2093
216	2123
216	2247
216	2259
216	2279
216	2374
216	2408
216	2615
216	2762
216	2769
216	2928
216	2996
216	3041
216	3095
216	3296
216	3372
216	3378
216	3382
216	3466
216	3618
216	3685
216	3942
216	4038
216	4045
216	4205
216	4403
216	4488
216	4492
216	4535
216	4596
216	4757
217	226
217	292
217	347
217	355
217	373
217	375
217	379
217	438
217	450
217	489
217	619
217	698
217	973
217	1006
217	1060
217	1444
217	1565
217	1660
217	1714
217	1724
217	1816
217	2055
217	2080
217	2269
217	2389
217	2546
217	2657
217	3001
217	3131
217	3301
217	3333
217	3457
217	3539
217	3649
217	3785
217	3862
217	3885
217	4078
217	4256
217	4333
217	4456
217	4541
217	4586
217	4595
217	4687
217	4741
217	4806
217	4885
217	4979
218	257
218	277
218	295
218	302
218	325
218	439
218	505
218	518
218	527
218	534
218	542
218	546
218	573
218	597
218	668
218	697
218	743
218	751
218	794
218	809
218	923
218	942
218	979
218	981
218	1095
218	1115
218	1116
218	1138
218	1164
218	1239
218	1254
218	1363
218	1381
218	1540
218	1728
218	1768
218	1845
218	1980
218	2005
218	2093
218	2123
218	2138
218	2214
218	2278
218	2328
218	2397
218	2517
218	2577
218	2614
218	2626
218	2640
218	2702
218	2745
218	2748
218	2836
218	2854
218	2971
218	2999
218	3017
218	3072
218	3083
218	3122
218	3268
218	3336
218	3342
218	3427
218	3445
218	3479
218	3500
218	3621
218	3676
218	3722
218	3928
218	4146
218	4205
218	4277
218	4523
218	4632
218	4756
218	4767
218	4838
219	227
219	284
219	297
219	321
219	343
219	391
219	437
219	638
219	746
219	797
219	841
219	953
219	1047
219	1076
219	1079
219	1088
219	1161
219	1332
219	1346
219	1373
219	1420
219	1471
219	1500
219	1570
219	1585
219	1614
219	1620
219	1836
219	1909
219	1941
219	2023
219	2045
219	2056
219	2073
219	2120
219	2286
219	2309
219	2315
219	2372
219	2414
219	2449
219	2475
219	2498
219	2653
219	2813
219	2939
219	2953
219	2956
219	3010
219	3165
219	3183
219	3337
219	3475
219	3540
219	3547
219	3683
219	3723
219	3792
219	3876
219	3924
219	4031
219	4229
219	4365
219	4374
219	4380
219	4626
219	4741
219	4766
219	4783
220	335
220	351
220	404
220	603
220	607
220	667
220	708
220	913
220	975
220	1101
220	1123
220	1514
220	1636
220	1699
220	1821
220	1868
220	2170
220	2286
220	2329
220	2365
220	2382
220	2494
220	2915
220	2990
220	3101
220	3396
220	3536
220	4151
220	4197
220	4333
220	4409
220	4543
220	4634
220	4739
221	269
221	271
221	306
221	335
221	339
221	352
221	372
221	422
221	428
221	454
221	558
221	586
221	627
221	650
221	656
221	722
221	799
221	834
221	836
221	849
221	913
221	981
221	1049
221	1156
221	1250
221	1276
221	1298
221	1313
221	1364
221	1383
221	1410
221	1478
221	1493
221	1535
221	1559
221	1717
221	1738
221	1871
221	1885
221	1946
221	1953
221	2029
221	2139
221	2274
221	2461
221	2510
221	2864
221	2931
221	3006
221	3018
221	3107
221	3163
221	3204
221	3285
221	3380
221	3506
221	3515
221	3576
221	3595
221	3831
221	4025
221	4061
221	4115
221	4195
221	4215
221	4332
221	4595
221	4689
222	233
222	298
222	305
222	406
222	416
222	422
222	472
222	519
222	733
222	752
222	875
222	899
222	909
222	924
222	1041
222	1270
222	1367
222	1417
222	1438
222	1511
222	1670
222	1842
222	1984
222	2062
222	2255
222	2854
222	2937
222	3089
222	3160
222	3470
222	3557
222	3681
222	3834
222	3877
222	3959
222	4786
222	4860
222	4909
223	249
223	352
223	396
223	404
223	409
223	473
223	603
223	680
223	798
223	827
223	963
223	974
223	1066
223	1077
223	1125
223	1132
223	1170
223	1402
223	1436
223	1735
223	1783
223	1797
223	1821
223	1890
223	1895
223	2064
223	2065
223	2067
223	2129
223	2173
223	2303
223	2315
223	2335
223	2355
223	2457
223	2811
223	2812
223	2851
223	2853
223	3029
223	3070
223	3089
223	3091
223	3147
223	3383
223	3472
223	3525
223	3554
223	3565
223	3586
223	3596
223	3628
223	3713
223	3725
223	3757
223	3823
223	3859
223	4099
223	4165
223	4172
223	4204
223	4458
223	4524
223	4600
223	4827
223	4962
223	4990
224	285
224	347
224	416
224	421
224	451
224	475
224	484
224	486
224	569
224	575
224	607
224	641
224	679
224	694
224	698
224	745
224	819
224	878
224	1050
224	1083
224	1090
224	1185
224	1249
224	1267
224	1285
224	1321
224	1327
224	1387
224	1484
224	1504
224	1516
224	1522
224	1545
224	1563
224	1565
224	1586
224	1644
224	1731
224	1760
224	1830
224	2089
224	2207
224	2361
224	2500
224	2864
224	3048
224	3074
224	3195
224	3241
224	3285
224	3297
224	3454
224	3558
224	3607
224	3845
224	4033
224	4047
224	4062
224	4113
224	4250
224	4295
224	4441
224	4495
224	4595
225	228
225	233
225	303
225	320
225	339
225	469
225	487
225	510
225	523
225	534
225	612
225	621
225	638
225	670
225	750
225	813
225	816
225	874
225	943
225	970
225	1021
225	1060
225	1094
225	1122
225	1195
225	1202
225	1284
225	1381
225	1450
225	1451
225	1476
225	1499
225	1518
225	1594
225	1599
225	1611
225	1623
225	1625
225	1654
225	1671
225	1721
225	1722
225	1744
225	1997
225	2242
225	2426
225	2431
225	2491
225	2506
225	2548
225	2618
225	2730
225	2914
225	2982
225	2987
225	3059
225	3061
225	3131
225	3140
225	3152
225	3219
225	3243
225	3260
225	3361
225	3369
225	3695
225	3833
225	3844
225	3917
225	3982
225	3985
225	4069
225	4177
225	4285
225	4496
225	4635
225	4761
225	4972
226	233
226	311
226	315
226	323
226	334
226	384
226	414
226	417
226	441
226	505
226	611
226	640
226	734
226	809
226	836
226	846
226	884
226	928
226	979
226	1008
226	1127
226	1287
226	1390
226	1434
226	1640
226	1906
226	1924
226	2256
226	2381
226	2548
226	2764
226	2955
226	3299
226	3352
226	3428
226	3436
226	3534
226	4073
226	4156
226	4799
227	238
227	248
227	275
227	284
227	323
227	346
227	367
227	368
227	372
227	377
227	405
227	437
227	455
227	535
227	540
227	577
227	587
227	642
227	760
227	778
227	781
227	807
227	936
227	964
227	1026
227	1045
227	1080
227	1097
227	1098
227	1101
227	1123
227	1365
227	1386
227	1404
227	1431
227	1688
227	1992
227	1998
227	2002
227	2006
227	2060
227	2085
227	2132
227	2186
227	2253
227	2357
227	2363
227	2509
227	2553
227	2770
227	2809
227	3032
227	3113
227	3344
227	3362
227	3410
227	3525
227	3626
227	3711
227	3979
227	4007
227	4032
227	4195
227	4277
227	4312
227	4567
227	4782
227	4875
228	247
228	325
228	447
228	474
228	483
228	691
228	714
228	803
228	872
228	925
228	941
228	963
228	1013
228	1078
228	1103
228	1172
228	1174
228	1186
228	1261
228	1383
228	1464
228	1688
228	1786
228	1817
228	1933
228	2104
228	2125
228	2176
228	2406
228	2465
228	2539
228	2673
228	2677
228	2804
228	3598
228	3811
228	3891
228	3993
228	4263
228	4290
228	4896
229	255
229	259
229	273
229	275
229	281
229	307
229	310
229	328
229	377
229	397
229	407
229	408
229	420
229	465
229	471
229	557
229	610
229	652
229	662
229	684
229	847
229	852
229	858
229	1043
229	1050
229	1052
229	1300
229	1333
229	1426
229	1463
229	1489
229	1573
229	1620
229	1756
229	1898
229	2016
229	2044
229	2170
229	2256
229	2328
229	2444
229	2451
229	2751
229	2758
229	2765
229	2785
229	2918
229	3025
229	3102
229	3131
229	3148
229	3280
229	3777
229	3824
229	4443
229	4852
229	4911
230	325
230	349
230	365
230	371
230	399
230	457
230	474
230	531
230	537
230	688
230	691
230	738
230	750
230	801
230	805
230	949
230	998
230	1043
230	1112
230	1129
230	1132
230	1159
230	1258
230	1282
230	1330
230	1552
230	1703
230	1823
230	1888
230	1904
230	2002
230	2142
230	2219
230	2232
230	2375
230	2714
230	2753
230	2758
230	2946
230	3328
230	3652
230	3966
230	3993
230	4437
231	242
231	278
231	332
231	366
231	391
231	454
231	487
231	583
231	584
231	696
231	737
231	740
231	743
231	794
231	795
231	844
231	922
231	924
231	926
231	936
231	946
231	984
231	993
231	1075
231	1109
231	1110
231	1268
231	1312
231	1630
231	1706
231	1772
231	1819
231	1841
231	2139
231	2147
231	2216
231	2440
231	2636
231	2780
231	2829
231	3046
231	3271
231	3329
231	3357
231	3401
231	3489
231	3701
231	4074
231	4110
231	4151
231	4576
231	4792
232	246
232	250
232	353
232	356
232	361
232	398
232	471
232	516
232	566
232	608
232	625
232	681
232	704
232	785
232	790
232	815
232	853
232	854
232	953
232	975
232	1055
232	1128
232	1149
232	1328
232	1404
232	1411
232	1414
232	1434
232	1493
232	1552
232	1580
232	1601
232	1676
232	1702
232	1706
232	1753
232	1849
232	1897
232	1935
232	2015
232	2102
232	2194
232	2228
232	2269
232	2343
232	2415
232	2992
232	3032
232	3123
232	3237
232	3355
232	3503
232	3691
232	3843
232	3873
232	3989
232	4110
232	4291
232	4423
232	4641
232	4648
232	4698
232	4764
232	4768
232	4806
232	4888
233	237
233	270
233	286
233	303
233	346
233	347
233	359
233	450
233	485
233	531
233	562
233	572
233	582
233	623
233	632
233	650
233	662
233	714
233	845
233	863
233	905
233	913
233	959
233	975
233	986
233	1025
233	1070
233	1083
233	1270
233	1289
233	1293
233	1297
233	1331
233	1337
233	1355
233	1379
233	1381
233	1394
233	1410
233	1493
233	1497
233	1542
233	1612
233	1623
233	1769
233	1778
233	1844
233	2021
233	2090
233	2167
233	2189
233	2211
233	2218
233	2282
233	2413
233	2433
233	2527
233	2790
233	2834
233	2850
233	2887
233	2937
233	3063
233	3111
233	3278
233	3363
233	3500
233	3652
233	3760
233	3799
233	4171
233	4228
233	4420
233	4546
233	4674
233	4757
233	4884
233	4921
234	241
234	286
234	493
234	604
234	650
234	689
234	873
234	1002
234	1193
234	1246
234	1469
234	1686
234	1758
234	1863
234	1904
234	2299
234	2523
234	2982
234	3184
234	3286
234	3501
234	3588
234	3751
234	3806
234	3892
234	4240
234	4858
235	240
235	243
235	248
235	257
235	258
235	268
235	271
235	290
235	323
235	330
235	350
235	355
235	389
235	443
235	456
235	469
235	484
235	500
235	528
235	539
235	565
235	575
235	612
235	635
235	684
235	688
235	692
235	701
235	750
235	759
235	762
235	774
235	831
235	862
235	897
235	934
235	978
235	987
235	1054
235	1102
235	1110
235	1259
235	1302
235	1359
235	1384
235	1562
235	1587
235	1604
235	1631
235	1637
235	1677
235	1682
235	1753
235	1775
235	1938
235	1951
235	1975
235	2034
235	2065
235	2069
235	2219
235	2269
235	2326
235	2344
235	2351
235	2366
235	2414
235	2424
235	2439
235	2455
235	2743
235	2816
235	2933
235	2960
235	2963
235	3063
235	3067
235	3145
235	3224
235	3492
235	3499
235	3586
235	3624
235	3698
235	4065
235	4070
235	4143
235	4210
235	4253
235	4281
235	4330
235	4362
235	4366
235	4405
235	4429
235	4508
235	4757
235	4775
235	4960
236	243
236	335
236	450
236	453
236	458
236	474
236	585
236	658
236	670
236	833
236	869
236	907
236	921
236	1081
236	1150
236	1202
236	1228
236	1292
236	1329
236	1344
236	1347
236	1348
236	1358
236	1429
236	1529
236	1597
236	1607
236	1658
236	1666
236	1740
236	1746
236	1887
236	1972
236	2021
236	2084
236	2102
236	2169
236	2180
236	2202
236	2405
236	2473
236	2541
236	2559
236	2588
236	2778
236	2829
236	2857
236	2927
236	3026
236	3052
236	3196
236	3413
236	3438
236	3573
236	3682
236	3727
236	3770
236	3793
236	3883
236	3999
236	4014
236	4015
236	4047
236	4055
236	4154
236	4166
236	4192
236	4572
236	4716
236	4856
237	249
237	323
237	557
237	577
237	592
237	725
237	742
237	758
237	779
237	807
237	902
237	1066
237	1083
237	1173
237	1195
237	1230
237	1244
237	1404
237	1414
237	1494
237	1588
237	1604
237	1802
237	2022
237	2149
237	2299
237	2355
237	2541
237	2573
237	2612
237	2768
237	2803
237	2887
237	2902
237	2962
237	3059
237	3084
237	3135
237	3186
237	3209
237	3252
237	3326
237	3471
237	3481
237	3523
237	3587
237	3680
237	3726
237	4308
237	4470
237	4546
237	4747
237	4808
238	241
238	299
238	384
238	424
238	535
238	537
238	680
238	706
238	859
238	904
238	1325
238	1346
238	1365
238	1638
238	1692
238	1894
238	1993
238	2025
238	2127
238	2247
238	2289
238	2389
238	2476
238	2540
238	2780
238	2796
238	2945
238	2963
238	3142
238	3181
238	3253
238	3334
238	3477
238	3533
238	3534
238	3688
238	3728
238	3758
238	4108
238	4158
238	4282
238	4490
238	4613
238	4735
239	242
239	265
239	272
239	279
239	282
239	304
239	362
239	371
239	407
239	412
239	421
239	476
239	507
239	523
239	570
239	580
239	627
239	668
239	670
239	678
239	683
239	686
239	753
239	816
239	831
239	839
239	887
239	892
239	949
239	961
239	1075
239	1107
239	1153
239	1155
239	1156
239	1179
239	1197
239	1328
239	1352
239	1419
239	1468
239	1653
239	1818
239	1873
239	1877
239	2147
239	2262
239	2294
239	2336
239	2346
239	2359
239	2388
239	2450
239	2487
239	2775
239	2829
239	3691
239	3867
239	3880
239	4364
239	4637
239	4699
239	4848
239	4935
240	279
240	293
240	344
240	373
240	400
240	415
240	420
240	429
240	451
240	470
240	568
240	586
240	670
240	682
240	705
240	882
240	916
240	920
240	976
240	1393
240	1520
240	1635
240	1665
240	1794
240	1807
240	2080
240	2138
240	2168
240	2260
240	2346
240	2398
240	2545
240	2645
240	2708
240	2713
240	2740
240	2774
240	2836
240	2910
240	2922
240	2968
240	3134
240	3248
240	3264
240	3280
240	3657
240	4102
240	4629
240	4632
241	242
241	284
241	389
241	494
241	535
241	540
241	545
241	674
241	686
241	720
241	731
241	875
241	945
241	978
241	1012
241	1042
241	1141
241	1193
241	1227
241	1273
241	1455
241	1572
241	1815
241	1984
241	2059
241	2097
241	2321
241	2394
241	2620
241	2839
241	2853
241	2915
241	3040
241	3253
241	3594
241	3852
241	3951
241	4061
241	4363
241	4364
241	4402
241	4469
241	4627
241	4731
241	4914
242	272
242	298
242	313
242	315
242	409
242	426
242	459
242	510
242	540
242	548
242	627
242	633
242	691
242	715
242	832
242	927
242	965
242	1054
242	1074
242	1130
242	1383
242	1475
242	1539
242	1764
242	1767
242	1973
242	1975
242	2214
242	2323
242	2391
242	2465
242	2484
242	2667
242	2723
242	3031
242	3364
242	3437
242	3754
242	3946
242	3976
242	4041
242	4183
242	4319
242	4585
242	4728
242	4900
242	4977
243	268
243	281
243	283
243	290
243	292
243	299
243	312
243	313
243	333
243	334
243	358
243	363
243	379
243	387
243	414
243	426
243	462
243	463
243	498
243	503
243	512
243	529
243	603
243	609
243	656
243	664
243	682
243	696
243	727
243	763
243	782
243	799
243	862
243	910
243	928
243	944
243	947
243	958
243	1033
243	1060
243	1076
243	1104
243	1120
243	1225
243	1263
243	1333
243	1361
243	1460
243	1508
243	1543
243	1546
243	1579
243	1586
243	1591
243	1593
243	1629
243	1676
243	1719
243	1738
243	1744
243	1777
243	1831
243	1921
243	2023
243	2024
243	2251
243	2274
243	2427
243	2543
243	2550
243	2573
243	2634
243	2635
243	2649
243	2716
243	2786
243	2867
243	2884
243	2922
243	2924
243	2947
243	3318
243	3336
243	3500
243	3569
243	3714
243	3750
243	3776
243	3847
243	4020
243	4084
243	4145
243	4215
243	4287
243	4389
243	4449
243	4510
243	4571
243	4668
243	4785
243	4803
243	4824
243	4964
243	4967
244	269
244	292
244	298
244	341
244	375
244	465
244	580
244	654
244	811
244	812
244	919
244	935
244	1033
244	1050
244	1077
244	1109
244	1119
244	1274
244	1299
244	1395
244	1478
244	1508
244	1646
244	1719
244	1789
244	1821
244	2076
244	2179
244	2693
244	2803
244	3432
244	3493
244	3597
244	3744
244	3782
244	4175
244	4268
244	4317
244	4547
244	4726
244	4915
245	250
245	253
245	261
245	313
245	323
245	372
245	403
245	418
245	419
245	518
245	595
245	601
245	621
245	680
245	700
245	730
245	904
245	935
245	992
245	999
245	1014
245	1062
245	1089
245	1122
245	1151
245	1174
245	1216
245	1217
245	1258
245	1370
245	1387
245	1416
245	1537
245	1660
245	1663
245	1696
245	1944
245	2012
245	2293
245	2533
245	2559
245	2612
245	2743
245	2872
245	2885
245	2886
245	2893
245	2965
245	3233
245	3399
245	3669
245	3772
245	3778
245	3906
245	3925
245	4195
245	4423
245	4442
245	4736
245	4779
246	322
246	358
246	461
246	557
246	587
246	593
246	720
246	747
246	821
246	835
246	1035
246	1167
246	1199
246	1280
246	1555
246	1645
246	1767
246	1956
246	2000
246	2253
246	2378
246	2416
246	2507
246	2530
246	2583
246	2616
246	2630
246	2783
246	2820
246	3191
246	3490
246	3492
246	3563
246	3584
246	3719
246	3781
246	3809
246	3905
246	3933
246	4007
246	4051
246	4168
246	4297
246	4470
246	4472
246	4638
246	4866
247	287
247	301
247	343
247	409
247	445
247	493
247	514
247	558
247	573
247	635
247	651
247	736
247	747
247	785
247	831
247	892
247	905
247	988
247	1049
247	1243
247	1268
247	1583
247	1603
247	1775
247	1795
247	1802
247	1846
247	1943
247	1985
247	2063
247	2399
247	2414
247	2624
247	2726
247	2737
247	2774
247	2803
247	2815
247	2897
247	2920
247	2926
247	2999
247	3086
247	3177
247	3277
247	3326
247	3684
247	3790
247	4013
247	4180
247	4471
247	4534
247	4562
247	4666
247	4780
247	4932
247	4976
248	273
248	329
248	416
248	464
248	508
248	534
248	538
248	560
248	561
248	571
248	578
248	633
248	680
248	734
248	794
248	926
248	961
248	963
248	1157
248	1272
248	1277
248	1311
248	1400
248	1424
248	1615
248	1744
248	1760
248	1773
248	2099
248	2208
248	2217
248	2270
248	2273
248	2355
248	2463
248	2681
248	2918
248	2954
248	3025
248	3184
248	3363
248	3382
248	3394
248	3470
248	3529
248	3818
248	3833
248	3983
248	4008
248	4252
248	4376
248	4408
248	4492
248	4548
248	4680
248	4767
249	294
249	400
249	411
249	472
249	580
249	620
249	905
249	931
249	1044
249	1056
249	1062
249	1094
249	1217
249	1220
249	1248
249	1263
249	1364
249	1404
249	1507
249	1666
249	1753
249	1786
249	2093
249	2354
249	2406
249	2540
249	2555
249	2656
249	2699
249	2730
249	3068
249	3477
249	3526
249	3597
249	3927
249	3969
249	3974
249	4091
249	4409
249	4618
250	261
250	341
250	397
250	457
250	473
250	481
250	526
250	551
250	598
250	643
250	711
250	723
250	783
250	936
250	1026
250	1205
250	1275
250	1430
250	1506
250	1533
250	1592
250	1700
250	1706
250	1714
250	1912
250	1964
250	2033
250	2143
250	2323
250	2341
250	2376
250	2509
250	2537
250	2728
250	2760
250	2913
250	3168
250	3180
250	3199
250	3215
250	3358
250	3403
250	3859
250	3936
250	4780
250	4991
251	269
251	275
251	280
251	294
251	296
251	447
251	483
251	658
251	677
251	814
251	893
251	1150
251	1284
251	1293
251	1329
251	1345
251	1381
251	1392
251	1443
251	1446
251	1602
251	1716
251	2105
251	2132
251	2149
251	2193
251	2204
251	2298
251	2312
251	2427
251	2513
251	2529
251	2585
251	2591
251	2646
251	2789
251	2838
251	3060
251	3141
251	3162
251	3179
251	3200
251	3367
251	3415
251	3581
251	3703
251	3911
251	4121
251	4245
251	4287
251	4304
251	4367
251	4461
251	4727
251	4746
251	4803
251	4956
252	283
252	322
252	346
252	369
252	452
252	458
252	493
252	517
252	553
252	631
252	663
252	736
252	754
252	821
252	864
252	898
252	973
252	1015
252	1179
252	1223
252	1292
252	1318
252	1323
252	1375
252	1384
252	1463
252	1736
252	1749
252	1802
252	2014
252	2047
252	2090
252	2373
252	2943
252	2981
252	3024
252	3099
252	3511
252	3609
252	3737
252	3920
252	4022
252	4089
252	4247
252	4607
252	4646
253	273
253	281
253	371
253	381
253	460
253	658
253	682
253	797
253	832
253	1137
253	1448
253	1483
253	1517
253	1540
253	1567
253	1604
253	1775
253	1812
253	1926
253	2057
253	2100
253	2192
253	2214
253	2458
253	2687
253	2921
253	3026
253	3329
253	3405
253	3523
253	3571
253	3617
253	3816
253	3909
253	4003
253	4131
253	4318
254	275
254	347
254	381
254	415
254	495
254	575
254	607
254	648
254	651
254	658
254	757
254	771
254	837
254	1032
254	1068
254	1088
254	1094
254	1201
254	1282
254	1518
254	1575
254	1617
254	1624
254	1726
254	1891
254	2005
254	2091
254	2176
254	2193
254	2225
254	2269
254	2282
254	2444
254	2466
254	2594
254	2961
254	2967
254	2986
254	3151
254	3162
254	3172
254	3216
254	3487
254	3563
254	3647
254	3676
254	3780
254	3824
254	3870
254	4002
254	4147
254	4215
254	4296
254	4516
254	4835
254	4893
255	260
255	270
255	304
255	401
255	443
255	480
255	506
255	526
255	665
255	679
255	706
255	712
255	754
255	758
255	777
255	845
255	887
255	925
255	1011
255	1114
255	1221
255	1297
255	1574
255	1609
255	1879
255	1969
255	2105
255	2178
255	2271
255	2300
255	2325
255	2942
255	3194
255	3399
255	3690
255	4202
255	4204
255	4245
255	4382
255	4596
255	4634
255	4660
255	4838
256	258
256	260
256	267
256	316
256	351
256	376
256	390
256	401
256	412
256	430
256	466
256	535
256	638
256	639
256	764
256	787
256	924
256	933
256	1008
256	1011
256	1036
256	1147
256	1184
256	1277
256	1402
256	1436
256	1541
256	1633
256	1669
256	1710
256	1756
256	1874
256	1925
256	1963
256	2142
256	2155
256	2228
256	2244
256	2254
256	2463
256	2474
256	2508
256	2610
256	2727
256	2770
256	2806
256	3263
256	3285
256	3297
256	3367
256	3524
256	3594
256	3624
256	3633
256	3680
256	3681
256	3686
256	3949
256	4299
256	4340
256	4666
256	4671
256	4722
256	4734
256	4737
256	4855
256	4941
256	4943
256	4952
257	263
257	277
257	298
257	307
257	357
257	365
257	368
257	385
257	502
257	511
257	533
257	535
257	686
257	704
257	709
257	727
257	730
257	914
257	916
257	923
257	942
257	1213
257	1275
257	1371
257	1408
257	1436
257	1652
257	1673
257	1695
257	1726
257	1765
257	1778
257	1840
257	1975
257	2047
257	2075
257	2108
257	2117
257	2172
257	2215
257	2234
257	2317
257	2404
257	2420
257	2617
257	2645
257	2684
257	2688
257	2693
257	2821
257	2897
257	2944
257	3114
257	3346
257	3394
257	3435
257	3499
257	3683
257	4122
257	4515
257	4588
257	4657
257	4724
257	4912
258	262
258	332
258	345
258	423
258	469
258	476
258	482
258	531
258	547
258	605
258	650
258	651
258	679
258	789
258	1115
258	1204
258	1383
258	1544
258	1872
258	2285
258	2453
258	2483
258	2526
258	2527
258	2695
258	3136
258	3179
258	3413
258	3913
258	3938
258	3944
258	3975
258	4151
258	4155
258	4242
258	4322
258	4424
258	4431
258	4539
258	4542
258	4690
258	4818
259	277
259	287
259	307
259	527
259	598
259	610
259	730
259	755
259	803
259	826
259	877
259	943
259	1019
259	1037
259	1184
259	1190
259	1208
259	1237
259	1276
259	1281
259	1316
259	1342
259	1346
259	1363
259	1375
259	1418
259	1513
259	1518
259	1661
259	1666
259	1669
259	1717
259	1765
259	1847
259	1909
259	1912
259	1936
259	1973
259	2160
259	2194
259	2405
259	2477
259	2570
259	2792
259	2798
259	2884
259	2890
259	2992
259	3014
259	3155
259	3244
259	3637
259	3707
259	3972
259	4093
259	4197
259	4232
259	4248
259	4333
259	4693
260	270
260	361
260	365
260	402
260	461
260	497
260	712
260	717
260	734
260	913
260	1008
260	1017
260	1036
260	1162
260	1187
260	1336
260	1384
260	1423
260	1542
260	1569
260	1572
260	1640
260	1651
260	1733
260	1773
260	1889
260	2093
260	2180
260	2244
260	2272
260	2275
260	2287
260	2299
260	2336
260	2410
260	2617
260	2682
260	2788
260	2905
260	3029
260	3303
260	3485
260	3606
260	3758
260	3853
260	3890
260	4010
260	4048
260	4274
260	4299
260	4343
260	4545
260	4626
260	4651
260	4865
260	4958
260	4966
261	270
261	294
261	417
261	419
261	438
261	519
261	551
261	571
261	693
261	727
261	738
261	765
261	830
261	903
261	915
261	954
261	975
261	1079
261	1268
261	1429
261	1470
261	1537
261	1605
261	1649
261	1869
261	1890
261	2051
261	2061
261	2100
261	2151
261	2253
261	2461
261	2622
261	2960
261	3024
261	3125
261	3267
261	3306
261	3516
261	3573
261	3590
261	3778
261	3854
261	4045
261	4393
261	4509
261	4669
261	4670
261	4704
261	4772
262	339
262	383
262	420
262	424
262	448
262	464
262	465
262	479
262	610
262	620
262	632
262	663
262	684
262	701
262	764
262	973
262	1125
262	1150
262	1156
262	1251
262	1262
262	1270
262	1318
262	1376
262	1437
262	1583
262	1650
262	1725
262	1810
262	1840
262	1920
262	2548
262	2560
262	2583
262	2668
262	2767
262	2914
262	3069
262	3209
262	3352
262	3400
262	3527
262	3706
262	3821
262	3918
262	3928
262	4043
262	4054
262	4097
262	4512
262	4808
262	4908
262	4957
263	272
263	286
263	296
263	373
263	427
263	447
263	502
263	509
263	520
263	521
263	525
263	584
263	640
263	645
263	661
263	663
263	678
263	715
263	882
263	901
263	945
263	1014
263	1033
263	1042
263	1062
263	1071
263	1135
263	1200
263	1242
263	1415
263	1458
263	1485
263	1606
263	1661
263	1831
263	1873
263	1915
263	1952
263	2026
263	2066
263	2068
263	2162
263	2221
263	2270
263	2375
263	2384
263	2401
263	2411
263	2449
263	2622
263	2647
263	2653
263	2677
263	2690
263	2699
263	2873
263	2879
263	2960
263	3047
263	3073
263	3208
263	3284
263	3493
263	3496
263	3614
263	3640
263	3665
263	3801
263	3898
263	4069
263	4305
263	4317
263	4452
263	4627
263	4776
263	4777
263	4791
263	4826
263	4840
263	4851
263	4867
263	4876
263	4932
263	4933
264	272
264	293
264	310
264	357
264	367
264	416
264	417
264	437
264	445
264	505
264	559
264	584
264	597
264	641
264	731
264	855
264	1052
264	1093
264	1136
264	1161
264	1209
264	1241
264	1409
264	1453
264	1740
264	1743
264	1754
264	1843
264	1846
264	1875
264	1964
264	1983
264	2119
264	2127
264	2247
264	2712
264	2717
264	2799
264	2868
264	2897
264	2919
264	3051
264	3265
264	3396
264	3615
264	3782
264	3893
264	4098
264	4271
264	4333
264	4410
264	4478
264	4614
264	4869
264	4929
265	282
265	307
265	322
265	352
265	389
265	440
265	512
265	655
265	744
265	815
265	841
265	909
265	1021
265	1079
265	1555
265	1557
265	1583
265	1713
265	1778
265	2789
265	2834
265	2978
265	3225
265	3317
265	3364
265	3454
265	3487
265	3623
265	3645
265	3714
265	3781
265	4208
265	4273
265	4282
265	4438
265	4504
265	4654
266	327
266	352
266	377
266	418
266	435
266	449
266	450
266	474
266	542
266	559
266	651
266	700
266	756
266	767
266	780
266	807
266	876
266	889
266	909
266	991
266	1100
266	1102
266	1124
266	1131
266	1136
266	1178
266	1295
266	1300
266	1369
266	1390
266	1391
266	1467
266	1529
266	1567
266	1572
266	1581
266	1588
266	1606
266	1643
266	1655
266	1679
266	1733
266	1840
266	1972
266	2096
266	2142
266	2212
266	2268
266	2443
266	2497
266	2560
266	2607
266	2623
266	2633
266	2637
266	2669
266	2707
266	2716
266	2755
266	2855
266	2909
266	2911
266	3027
266	3041
266	3118
266	3129
266	3223
266	3230
266	3258
266	3264
266	3285
266	3346
266	3483
266	3569
266	3581
266	3878
266	3909
266	3929
266	3935
266	4163
266	4193
266	4225
266	4309
266	4676
266	4696
266	4726
266	4803
266	4828
266	4904
267	274
267	330
267	435
267	453
267	472
267	508
267	667
267	693
267	742
267	745
267	783
267	857
267	870
267	983
267	1195
267	1371
267	1396
267	1477
267	1658
267	1687
267	1705
267	1745
267	1819
267	1907
267	2100
267	2131
267	2193
267	2215
267	2319
267	2364
267	2443
267	2651
267	3019
267	3544
267	3748
267	3770
267	4332
267	4415
267	4497
267	4826
267	4861
268	301
268	332
268	357
268	405
268	410
268	432
268	463
268	499
268	513
268	607
268	629
268	680
268	683
268	916
268	944
268	946
268	1019
268	1114
268	1195
268	1202
268	1361
268	1482
268	1692
268	1739
268	1873
268	1924
268	2020
268	2052
268	2080
268	2116
268	2137
268	2181
268	2189
268	2247
268	2306
268	2458
268	2593
268	2632
268	2640
268	2890
268	2945
268	2952
268	3063
268	3112
268	3148
268	3170
268	3194
268	3203
268	3312
268	3316
268	3330
268	3494
268	3596
268	3669
268	3925
268	4103
268	4162
268	4569
268	4942
268	4961
269	317
269	441
269	646
269	668
269	707
269	880
269	1244
269	1321
269	1508
269	1668
269	2002
269	2042
269	2075
269	2106
269	2454
269	2546
269	2567
269	2591
269	2631
269	2651
269	2799
269	3350
269	4084
269	4339
269	4708
269	4990
270	382
270	387
270	447
270	639
270	983
270	1463
270	1612
270	1848
270	1915
270	2998
270	3194
270	4148
270	4588
270	4795
271	274
271	292
271	334
271	376
271	448
271	519
271	529
271	548
271	588
271	649
271	689
271	771
271	777
271	862
271	890
271	931
271	991
271	1111
271	1172
271	1276
271	1290
271	1324
271	1361
271	1428
271	1508
271	1528
271	1822
271	1841
271	1902
271	1923
271	2170
271	2323
271	2589
271	2658
271	2898
271	2911
271	3125
271	3203
271	3402
271	3569
271	3605
271	3614
271	3643
271	4130
271	4559
271	4821
271	4879
272	286
272	292
272	331
272	346
272	574
272	577
272	619
272	623
272	986
272	1088
272	1226
272	1240
272	1291
272	1352
272	1391
272	1423
272	1726
272	1812
272	1815
272	1862
272	1925
272	1927
272	2132
272	2238
272	2862
272	3419
272	3511
272	3812
272	3845
272	3940
272	3961
272	4005
272	4066
272	4751
272	4838
272	4911
273	325
273	414
273	508
273	522
273	529
273	644
273	672
273	676
273	694
273	723
273	889
273	902
273	962
273	1150
273	1155
273	1159
273	1194
273	1403
273	1444
273	1474
273	1499
273	1524
273	1651
273	1757
273	1771
273	1777
273	1879
273	1999
273	2017
273	2170
273	2245
273	2293
273	2596
273	2628
273	2642
273	2742
273	2754
273	2828
273	2834
273	2881
273	3034
273	3317
273	3341
273	3415
273	3533
273	3707
273	3985
273	4172
273	4191
273	4198
273	4372
273	4418
273	4513
273	4592
273	4602
273	4857
273	4860
273	4933
274	290
274	340
274	379
274	398
274	424
274	427
274	449
274	497
274	541
274	560
274	776
274	798
274	858
274	1092
274	1196
274	1348
274	1409
274	1888
274	2109
274	2282
274	2307
274	2445
274	2993
274	3477
274	3572
274	3613
274	3819
274	3832
274	3841
274	3885
274	3901
274	3947
274	4018
274	4293
274	4384
274	4606
274	4833
274	4843
274	4919
274	4963
275	294
275	342
275	370
275	651
275	666
275	678
275	838
275	840
275	1011
275	1045
275	1046
275	1137
275	1216
275	1246
275	1352
275	1376
275	1447
275	1523
275	1763
275	1891
275	1926
275	1939
275	1981
275	2060
275	2248
275	2373
275	2415
275	2421
275	2617
275	2630
275	2893
275	3048
275	3144
275	3166
275	3294
275	3361
275	3476
275	3487
275	3548
275	3958
275	4072
275	4148
275	4162
275	4399
275	4876
275	4899
276	337
276	435
276	510
276	525
276	530
276	548
276	579
276	631
276	673
276	701
276	704
276	736
276	779
276	787
276	809
276	868
276	895
276	979
276	1045
276	1141
276	1267
276	1321
276	1340
276	1530
276	1546
276	1633
276	1696
276	1750
276	1833
276	1960
276	2018
276	2069
276	2245
276	2310
276	2508
276	2589
276	2595
276	2765
276	3086
276	3123
276	3298
276	3331
276	3443
276	3480
276	3553
276	3595
276	3709
276	3845
276	3855
276	3880
276	3896
276	4010
276	4116
276	4184
276	4425
276	4514
276	4808
276	4931
276	4932
277	300
277	337
277	378
277	399
277	435
277	462
277	574
277	581
277	659
277	669
277	695
277	720
277	780
277	829
277	834
277	863
277	895
277	960
277	1127
277	1172
277	1186
277	1287
277	1334
277	1358
277	1393
277	1399
277	1413
277	1419
277	1421
277	1449
277	1452
277	1488
277	1519
277	1540
277	1567
277	1842
277	1858
277	1861
277	1987
277	2046
277	2049
277	2118
277	2158
277	2174
277	2190
277	2257
277	2371
277	2523
277	2744
277	2805
277	2958
277	3014
277	3131
277	3152
277	3281
277	3395
277	3437
277	3464
277	3762
277	3973
277	4042
277	4076
277	4078
277	4233
277	4299
277	4431
277	4455
277	4526
277	4544
277	4656
277	4721
277	4789
277	4859
278	288
278	303
278	304
278	311
278	394
278	403
278	429
278	439
278	462
278	572
278	617
278	626
278	804
278	878
278	913
278	1217
278	1377
278	1505
278	1510
278	1543
278	1552
278	1795
278	1934
278	1939
278	2621
278	2624
278	2888
278	3012
278	3355
278	3499
278	3567
278	3587
278	3679
278	4104
278	4151
278	4297
278	4549
279	406
279	467
279	469
279	502
279	504
279	546
279	616
279	676
279	686
279	694
279	772
279	830
279	844
279	1076
279	1105
279	1290
279	1342
279	1463
279	1597
279	1607
279	1666
279	1682
279	1691
279	1861
279	1905
279	1935
279	1968
279	2059
279	2150
279	2251
279	2385
279	2504
279	3006
279	3430
279	3502
279	3518
279	3823
279	4164
279	4456
279	4478
279	4516
279	4605
279	4668
279	4685
279	4864
280	321
280	330
280	335
280	360
280	436
280	452
280	459
280	487
280	496
280	518
280	523
280	534
280	648
280	703
280	705
280	731
280	834
280	864
280	867
280	907
280	917
280	979
280	986
280	1016
280	1028
280	1056
280	1059
280	1156
280	1194
280	1196
280	1202
280	1221
280	1330
280	1464
280	1476
280	1495
280	1547
280	1614
280	1642
280	1681
280	1769
280	1774
280	1841
280	1945
280	2110
280	2120
280	2291
280	2299
280	2337
280	2385
280	2393
280	2407
280	2472
280	2499
280	2507
280	2545
280	2626
280	2672
280	2702
280	2918
280	2932
280	3141
280	3220
280	3403
280	3425
280	3514
280	3577
280	3722
280	3754
280	3814
280	3945
280	4266
280	4373
280	4384
280	4436
280	4483
280	4488
280	4538
280	4550
280	4552
280	4558
280	4641
280	4765
280	4963
281	304
281	341
281	394
281	568
281	734
281	804
281	846
281	886
281	888
281	907
281	1002
281	1145
281	1243
281	1263
281	1276
281	1313
281	1333
281	1366
281	1378
281	1382
281	1447
281	1455
281	1469
281	1558
281	2108
281	2343
281	2591
281	2630
281	2785
281	3150
281	3700
281	4189
281	4193
281	4323
281	4839
282	296
282	318
282	382
282	386
282	407
282	415
282	483
282	533
282	538
282	576
282	612
282	628
282	633
282	688
282	716
282	746
282	752
282	760
282	773
282	782
282	809
282	819
282	820
282	909
282	972
282	1022
282	1040
282	1060
282	1252
282	1326
282	1327
282	1401
282	1403
282	1530
282	1537
282	1538
282	1574
282	1659
282	1724
282	1747
282	1782
282	1801
282	2019
282	2038
282	2087
282	2205
282	2282
282	2378
282	2449
282	2495
282	2534
282	2591
282	2615
282	2809
282	2835
282	2956
282	3078
282	3173
282	3177
282	3195
282	3214
282	3289
282	3346
282	3462
282	3469
282	3492
282	3544
282	3576
282	3683
282	3725
282	3844
282	3873
282	3963
282	3982
282	4004
282	4063
282	4066
282	4147
282	4235
282	4307
282	4604
282	4607
282	4626
282	4630
282	4778
282	4918
282	4947
283	306
283	309
283	355
283	370
283	373
283	431
283	464
283	478
283	480
283	481
283	540
283	561
283	593
283	636
283	647
283	648
283	653
283	660
283	769
283	869
283	925
283	1214
283	1216
283	1249
283	1259
283	1300
283	1303
283	1318
283	1394
283	1398
283	1456
283	1477
283	1539
283	1683
283	1846
283	1883
283	1920
283	1933
283	1948
283	1949
283	1989
283	2042
283	2043
283	2086
283	2163
283	2207
283	2231
283	2250
283	2270
283	2329
283	2463
283	2486
283	2517
283	2546
283	2555
283	2746
283	2797
283	2831
283	3080
283	3140
283	3156
283	3203
283	3237
283	3274
283	3422
283	3425
283	3812
283	3862
283	3937
283	4056
283	4063
283	4141
283	4370
283	4374
283	4439
283	4575
283	4660
283	4890
284	300
284	347
284	375
284	454
284	538
284	559
284	572
284	644
284	656
284	671
284	694
284	747
284	748
284	1450
284	1546
284	1898
284	2163
284	2286
284	2523
284	2554
284	2580
284	2823
284	2943
284	2959
284	3187
284	3341
284	3625
284	3715
284	3774
284	3866
284	3999
284	4003
284	4193
284	4196
284	4353
284	4448
284	4549
284	4556
284	4614
284	4770
285	306
285	470
285	528
285	558
285	743
285	1040
285	1160
285	1175
285	2452
285	2752
285	2940
285	3469
285	3522
285	3670
285	3876
285	4055
285	4611
285	4664
286	290
286	299
286	307
286	340
286	384
286	424
286	431
286	482
286	492
286	500
286	534
286	561
286	599
286	618
286	688
286	755
286	781
286	837
286	852
286	883
286	937
286	1001
286	1023
286	1041
286	1046
286	1080
286	1105
286	1106
286	1164
286	1188
286	1215
286	1410
286	1513
286	1691
286	1697
286	1709
286	1935
286	1939
286	1960
286	2240
286	2290
286	2293
286	2523
286	2647
286	2653
286	2673
286	2674
286	2762
286	3083
286	3281
286	3396
286	3398
286	3504
286	3545
286	3611
286	3762
286	3951
286	4087
286	4117
286	4126
286	4240
286	4244
286	4438
286	4471
286	4480
286	4712
286	4727
286	4998
287	288
287	354
287	360
287	488
287	528
287	583
287	617
287	643
287	678
287	709
287	735
287	790
287	802
287	885
287	896
287	925
287	1057
287	1089
287	1108
287	1199
287	1243
287	1245
287	1294
287	1357
287	1578
287	1640
287	1643
287	1652
287	1662
287	1809
287	1834
287	1916
287	1949
287	2139
287	2700
287	2742
287	2848
287	2857
287	3015
287	3388
287	3431
287	3454
287	3623
287	3822
287	3857
287	4087
287	4235
287	4373
287	4425
287	4450
287	4616
287	4743
287	4748
287	4787
287	4810
287	4830
287	4851
287	4893
288	332
288	408
288	518
288	563
288	644
288	675
288	871
288	896
288	962
288	1089
288	1503
288	1726
288	1788
288	1829
288	1942
288	2040
288	2157
288	2198
288	2361
288	2560
288	2751
288	2789
288	2860
288	2950
288	3104
288	3204
288	3263
288	3406
288	3984
288	4148
288	4225
288	4227
288	4443
288	4599
289	296
289	324
289	336
289	340
289	351
289	395
289	432
289	487
289	547
289	595
289	690
289	851
289	877
289	1045
289	1060
289	1103
289	1115
289	1167
289	1240
289	1305
289	1438
289	1510
289	1582
289	1932
289	1967
289	1982
289	2025
289	2055
289	2231
289	2341
289	2587
289	2682
289	2720
289	2774
289	2787
289	2836
289	3124
289	3172
289	3191
289	3210
289	3511
289	3517
289	3659
289	3726
289	3791
289	3816
289	4288
289	4541
289	4646
289	4942
290	297
290	318
290	335
290	345
290	390
290	397
290	448
290	460
290	554
290	748
290	751
290	872
290	880
290	982
290	999
290	1022
290	1232
290	1375
290	1444
290	1479
290	1480
290	1632
290	1747
290	1813
290	2070
290	2128
290	2150
290	2219
290	2229
290	2250
290	2302
290	2378
290	2388
290	2478
290	2856
290	3274
290	3361
290	3469
290	3475
290	3487
290	3633
290	3882
290	3912
290	4110
290	4153
290	4187
290	4580
290	4947
291	306
291	331
291	433
291	523
291	600
291	844
291	957
291	1014
291	1016
291	1273
291	1295
291	1305
291	1433
291	1453
291	1741
291	1910
291	2321
291	2455
291	2955
291	2975
291	3076
291	3146
291	3162
291	3237
291	3470
291	3548
291	3957
291	4053
291	4067
291	4246
291	4339
291	4427
291	4848
292	308
292	311
292	321
292	346
292	406
292	433
292	578
292	658
292	688
292	694
292	724
292	728
292	733
292	813
292	864
292	906
292	933
292	1137
292	1169
292	1211
292	1274
292	1487
292	1520
292	1596
292	1742
292	1803
292	1889
292	1920
292	1938
292	2001
292	2041
292	2234
292	2493
292	2615
292	2825
292	2866
292	2934
292	3052
292	3118
292	3449
292	3453
292	3494
292	3527
292	3604
292	3658
292	3811
292	3893
292	3901
292	4807
292	4922
293	332
293	339
293	348
293	363
293	456
293	473
293	595
293	693
293	1063
293	1077
293	1095
293	1170
293	1519
293	1549
293	1554
293	1584
293	1844
293	1972
293	2030
293	2127
293	2208
293	2229
293	2447
293	2596
293	2640
293	2660
293	2710
293	2726
293	3372
293	3385
293	3579
293	3791
293	3867
293	3904
293	4119
293	4177
293	4200
293	4307
293	4480
293	4566
293	4647
293	4701
294	312
294	326
294	337
294	465
294	532
294	542
294	587
294	648
294	740
294	752
294	757
294	786
294	898
294	921
294	976
294	1040
294	1055
294	1130
294	1159
294	1168
294	1378
294	1392
294	1521
294	1545
294	1818
294	1921
294	2044
294	2062
294	2133
294	2284
294	2477
294	2491
294	2556
294	2871
294	2906
294	3016
294	3032
294	3092
294	3186
294	3226
294	3390
294	3606
294	3648
294	3931
294	3963
294	3977
294	4206
294	4260
294	4284
294	4292
294	4293
294	4314
294	4379
294	4481
294	4536
294	4557
294	4579
294	4601
294	4794
294	4806
294	4887
295	317
295	321
295	332
295	443
295	494
295	544
295	557
295	629
295	665
295	690
295	808
295	1004
295	1087
295	1157
295	1174
295	1308
295	1557
295	1624
295	1636
295	1732
295	1787
295	2039
295	2250
295	2426
295	2496
295	2552
295	2861
295	3012
295	3356
295	3429
295	3589
295	3680
295	3733
295	3811
295	3860
295	3954
295	4095
295	4118
295	4152
295	4730
295	4732
295	4864
295	4866
295	4877
295	4930
296	348
296	418
296	440
296	610
296	630
296	654
296	776
296	786
296	852
296	899
296	977
296	998
296	1021
296	1030
296	1059
296	1135
296	1144
296	1188
296	1370
296	1414
296	1470
296	1564
296	1580
296	1680
296	1945
296	2002
296	2060
296	2130
296	2182
296	2203
296	2219
296	2471
296	2588
296	2668
296	2743
296	2813
296	2960
296	2961
296	3057
296	3059
296	3156
296	3161
296	3176
296	3198
296	3212
296	3234
296	3242
296	3291
296	3415
296	3423
296	3597
296	3643
296	3683
296	3752
296	3766
296	3828
296	3909
296	3921
296	3948
296	4089
296	4256
296	4264
296	4394
296	4525
296	4558
296	4608
296	4659
296	4710
296	4991
297	334
297	348
297	349
297	392
297	463
297	546
297	574
297	610
297	617
297	707
297	729
297	754
297	856
297	901
297	950
297	996
297	1063
297	1069
297	1128
297	1135
297	1168
297	1172
297	1221
297	1356
297	1368
297	1392
297	1525
297	1528
297	1591
297	1629
297	1758
297	1890
297	2068
297	2239
297	2285
297	2351
297	2475
297	2511
297	2513
297	2542
297	2559
297	2619
297	2754
297	2804
297	2819
297	2845
297	2988
297	3002
297	3202
297	3224
297	3315
297	3566
297	3695
297	3714
297	3802
297	3823
297	4230
297	4548
297	4706
297	4974
298	343
298	388
298	431
298	475
298	522
298	558
298	599
298	618
298	640
298	827
298	891
298	894
298	920
298	1030
298	1121
298	1134
298	1192
298	1250
298	1260
298	1352
298	1399
298	1430
298	1601
298	1674
298	1681
298	1765
298	1793
298	1838
298	2005
298	2046
298	2285
298	2376
298	2393
298	2394
298	2432
298	2651
298	2883
298	3017
298	3077
298	3402
298	3496
298	3637
298	3739
298	3997
298	4000
298	4095
298	4109
298	4172
298	4401
298	4430
298	4491
298	4745
298	4761
298	4924
299	334
299	347
299	365
299	377
299	436
299	507
299	583
299	609
299	698
299	724
299	809
299	833
299	879
299	932
299	979
299	1060
299	1143
299	1207
299	1234
299	1284
299	1346
299	1397
299	1424
299	1464
299	1554
299	1579
299	1763
299	1793
299	1836
299	1837
299	1918
299	1959
299	2011
299	2135
299	2195
299	2225
299	2278
299	2284
299	2418
299	2495
299	2563
299	2599
299	2772
299	2934
299	3161
299	3254
299	3257
299	3351
299	3498
299	3511
299	3720
299	3788
299	3857
299	4053
299	4106
299	4141
299	4184
299	4268
299	4279
299	4432
299	4457
299	4479
299	4608
299	4618
299	4702
300	305
300	369
300	370
300	385
300	403
300	440
300	463
300	490
300	497
300	546
300	549
300	565
300	583
300	584
300	587
300	625
300	648
300	654
300	758
300	845
300	932
300	1076
300	1442
300	1443
300	1589
300	1826
300	1852
300	1972
300	2085
300	2094
300	2287
300	2460
300	2529
300	2633
300	2659
300	2793
300	2938
300	3143
300	3152
300	3414
300	3609
300	3731
300	4110
300	4255
300	4408
300	4522
300	4885
301	304
301	318
301	416
301	429
301	430
301	436
301	438
301	454
301	476
301	486
301	536
301	717
301	864
301	893
301	977
301	1027
301	1273
301	1519
301	1592
301	1663
301	1713
301	1823
301	1853
301	1935
301	2125
301	2201
301	2233
301	2375
301	2406
301	2863
301	2936
301	2990
301	3002
301	3032
301	3047
301	3422
301	3488
301	3577
301	3631
301	3737
301	3930
301	4809
301	4864
301	4897
301	4935
302	367
302	404
302	420
302	429
302	518
302	531
302	567
302	590
302	743
302	761
302	828
302	892
302	911
302	975
302	1367
302	1518
302	1596
302	1653
302	1713
302	1789
302	1903
302	1952
302	1972
302	2087
302	2319
302	2388
302	2405
302	2413
302	2415
302	2417
302	2687
302	2849
302	2881
302	2898
302	3028
302	3150
302	3692
302	3711
302	3765
302	3968
302	4035
302	4165
302	4445
302	4884
302	4977
303	388
303	430
303	555
303	636
303	708
303	732
303	804
303	897
303	941
303	976
303	977
303	1029
303	1046
303	1230
303	1460
303	1549
303	1635
303	1813
303	1921
303	1930
303	1965
303	2021
303	2242
303	2276
303	2479
303	2736
303	2762
303	2830
303	3012
303	3123
303	3212
303	3239
303	3454
303	3624
303	3632
303	3959
303	4014
303	4172
303	4185
303	4728
303	4809
304	311
304	319
304	472
304	473
304	499
304	514
304	523
304	558
304	571
304	601
304	611
304	767
304	820
304	847
304	878
304	925
304	968
304	989
304	1083
304	1086
304	1107
304	1224
304	1252
304	1291
304	1318
304	1340
304	1392
304	1474
304	1478
304	1565
304	1691
304	1766
304	1796
304	1819
304	1858
304	1923
304	1925
304	1990
304	2325
304	2750
304	2752
304	2863
304	2902
304	2949
304	3068
304	3385
304	3589
304	3741
304	3755
304	3756
304	3818
304	3839
304	4295
304	4550
304	4653
304	4690
304	4699
305	372
305	442
305	450
305	472
305	547
305	552
305	586
305	599
305	613
305	640
305	675
305	700
305	701
305	738
305	766
305	810
305	838
305	854
305	860
305	864
305	923
305	952
305	959
305	974
305	989
305	1038
305	1057
305	1116
305	1145
305	1175
305	1190
305	1236
305	1359
305	1460
305	1520
305	1605
305	1640
305	1757
305	1805
305	1822
305	1937
305	1938
305	1963
305	2023
305	2035
305	2109
305	2143
305	2157
305	2190
305	2203
305	2205
305	2280
305	2538
305	2559
305	2650
305	2653
305	2684
305	2687
305	2837
305	2994
305	3003
305	3100
305	3187
305	3302
305	3387
305	3389
305	3559
305	3881
305	4042
305	4095
305	4209
305	4287
305	4342
305	4398
305	4807
305	4859
305	4883
305	4896
305	4975
306	313
306	360
306	369
306	390
306	413
306	437
306	485
306	488
306	491
306	545
306	574
306	933
306	1000
306	1008
306	1219
306	1247
306	1281
306	1592
306	1618
306	1880
306	2006
306	2044
306	2068
306	2220
306	2277
306	2335
306	2403
306	2565
306	2686
306	2905
306	2907
306	3023
306	3061
306	3171
306	3172
306	3197
306	3200
306	3540
306	3574
306	4036
306	4240
306	4642
306	4860
306	4970
307	344
307	353
307	380
307	416
307	436
307	477
307	573
307	606
307	616
307	625
307	931
307	947
307	1097
307	1266
307	1307
307	1317
307	1531
307	1547
307	1551
307	1688
307	1701
307	1717
307	1743
307	1779
307	1815
307	1964
307	2056
307	2182
307	2202
307	2379
307	2411
307	2639
307	2771
307	2914
307	2943
307	2991
307	3016
307	3038
307	3098
307	3166
307	3175
307	3331
307	3668
307	3779
307	3797
307	3878
307	4068
307	4111
307	4179
307	4303
307	4753
308	321
308	322
308	351
308	403
308	417
308	431
308	468
308	613
308	632
308	634
308	696
308	758
308	787
308	849
308	896
308	978
308	1099
308	1119
308	1271
308	1291
308	1592
308	1669
308	1681
308	1826
308	1833
308	1836
308	2043
308	2052
308	2067
308	2086
308	2261
308	2300
308	2314
308	2318
308	2319
308	2361
308	2394
308	2478
308	2625
308	2804
308	2857
308	2945
308	3011
308	3055
308	3071
308	3304
308	3364
308	3407
308	3746
308	3997
308	4110
308	4206
308	4398
308	4430
308	4668
308	4724
308	4766
308	4777
308	4845
309	331
309	341
309	368
309	369
309	396
309	484
309	485
309	499
309	517
309	527
309	594
309	610
309	778
309	793
309	828
309	845
309	855
309	883
309	887
309	939
309	1152
309	1164
309	1185
309	1229
309	1248
309	1447
309	1474
309	1524
309	1559
309	1769
309	1812
309	1828
309	1881
309	1891
309	1919
309	1925
309	1992
309	2025
309	2086
309	2243
309	2314
309	2379
309	2404
309	2486
309	2503
309	2557
309	2559
309	2808
309	2822
309	2981
309	2984
309	3040
309	3096
309	3400
309	3435
309	3502
309	3507
309	3613
309	3632
309	3646
309	3692
309	3702
309	3997
309	4004
309	4076
309	4125
309	4181
309	4223
309	4242
309	4384
309	4460
309	4529
309	4591
309	4821
309	4882
309	4894
310	315
310	355
310	383
310	401
310	410
310	433
310	521
310	739
310	816
310	817
310	851
310	1045
310	1103
310	1130
310	1296
310	1445
310	1470
310	1490
310	1517
310	1691
310	1900
310	1964
310	1995
310	2104
310	2163
310	2281
310	2391
310	2420
310	2480
310	2649
310	2714
310	2859
310	2907
310	3041
310	3116
310	3133
310	3136
310	3150
310	3156
310	3213
310	3304
310	3532
310	3674
310	3742
310	3865
310	4049
310	4220
310	4331
310	4415
310	4548
310	4556
310	4580
310	4593
310	4798
310	4921
311	319
311	331
311	342
311	348
311	376
311	382
311	424
311	425
311	473
311	490
311	544
311	685
311	689
311	753
311	776
311	817
311	1039
311	1146
311	1179
311	1212
311	1231
311	1267
311	1426
311	1439
311	1516
311	1554
311	1563
311	1587
311	1695
311	1737
311	1784
311	2208
311	2225
311	2699
311	2933
311	2975
311	3658
311	3929
311	3966
311	4073
311	4177
311	4535
311	4731
311	4857
311	4961
311	4981
312	391
312	458
312	530
312	575
312	593
312	836
312	837
312	938
312	975
312	1007
312	1034
312	1275
312	1342
312	1363
312	1481
312	1538
312	1583
312	1592
312	1603
312	1652
312	1762
312	1788
312	1805
312	1844
312	2019
312	2102
312	2206
312	2230
312	2404
312	2764
312	2851
312	2932
312	2991
312	3347
312	3368
312	3473
312	3622
312	3690
312	3970
312	4523
312	4730
312	4755
312	4775
312	4801
312	4900
312	4932
312	4995
313	316
313	425
313	572
313	634
313	698
313	700
313	711
313	718
313	727
313	749
313	815
313	923
313	988
313	1226
313	1240
313	1320
313	1368
313	1402
313	1537
313	1602
313	1778
313	1847
313	1956
313	2032
313	2039
313	2106
313	2156
313	2166
313	2429
313	2439
313	2669
313	3182
313	3198
313	3233
313	3250
313	3341
313	3446
313	3632
313	3740
313	3877
313	3923
313	3948
313	4653
313	4691
314	327
314	358
314	366
314	368
314	403
314	457
314	523
314	529
314	578
314	640
314	662
314	793
314	822
314	895
314	896
314	918
314	955
314	1054
314	1196
314	1211
314	1338
314	1430
314	1655
314	1700
314	1804
314	1841
314	1911
314	2010
314	2026
314	2115
314	2207
314	2362
314	2470
314	2476
314	2582
314	2586
314	2662
314	2763
314	2768
314	2964
314	3281
314	3296
314	3504
314	3672
314	3719
314	3736
314	3741
314	3752
314	3838
314	4357
314	4366
314	4419
314	4724
315	346
315	391
315	422
315	428
315	530
315	548
315	671
315	717
315	838
315	864
315	971
315	1030
315	1046
315	1049
315	1107
315	1128
315	1179
315	1191
315	1282
315	1477
315	1526
315	1674
315	1736
315	1764
315	1770
315	1928
315	1966
315	2084
315	2216
315	2227
315	2255
315	2264
315	2287
315	2329
315	2340
315	2399
315	2534
315	2665
315	2698
315	2794
315	2799
315	2968
315	3122
315	3348
315	3372
315	3613
315	3975
315	4417
315	4429
315	4592
315	4650
315	4767
316	344
316	507
316	533
316	661
316	841
316	847
316	898
316	899
316	923
316	1058
316	1106
316	1369
316	1409
316	1419
316	1516
316	1862
316	1953
316	2064
316	2164
316	2175
316	2836
316	2875
316	3012
316	3122
316	3381
316	3426
316	3485
316	3495
316	3774
316	3901
316	3973
316	4092
316	4109
316	4345
316	4396
316	4503
316	4659
316	4713
316	4891
317	353
317	382
317	383
317	475
317	486
317	560
317	626
317	639
317	724
317	957
317	1124
317	1249
317	1331
317	1400
317	1567
317	1737
317	1917
317	2014
317	2043
317	2064
317	2090
317	2178
317	2212
317	2463
317	2555
317	2850
317	2858
317	3293
317	3709
317	3940
317	4139
317	4703
318	393
318	450
318	473
318	537
318	642
318	685
318	793
318	821
318	890
318	918
318	932
318	1007
318	1036
318	1597
318	1759
318	1862
318	2115
318	2144
318	2583
318	2883
318	2926
318	2977
318	3174
318	3329
318	3536
318	3639
318	3760
318	4003
318	4307
319	323
319	344
319	380
319	387
319	389
319	411
319	417
319	470
319	498
319	563
319	579
319	612
319	639
319	676
319	891
319	975
319	1016
319	1044
319	1164
319	1192
319	1297
319	1416
319	1505
319	1506
319	1622
319	1643
319	1652
319	1699
319	1738
319	1754
319	1793
319	1821
319	1859
319	1942
319	2043
319	2170
319	2277
319	2303
319	2393
319	2455
319	2803
319	2818
319	2856
319	2940
319	2962
319	3017
319	3107
319	3160
319	3227
319	3372
319	3387
319	3494
319	3580
319	3667
319	3692
319	4054
319	4070
319	4148
319	4166
319	4174
319	4341
319	4349
319	4471
319	4568
319	4603
319	4684
320	443
320	457
320	615
320	656
320	770
320	786
320	818
320	889
320	956
320	1057
320	1144
320	1176
320	1354
320	1451
320	1516
320	1623
320	1658
320	1684
320	1721
320	1755
320	1996
320	2087
320	2121
320	2138
320	2164
320	2196
320	2227
320	2380
320	2383
320	2683
320	2772
320	3027
320	3141
320	3273
320	3797
320	3971
320	4160
320	4784
320	4870
321	590
321	639
321	728
321	895
321	1254
321	1358
321	1452
321	1815
321	1946
321	1995
321	2129
321	2477
321	2589
321	2667
321	2699
321	3078
321	3398
321	3553
321	3755
321	3779
321	3870
321	3922
321	3992
321	4002
321	4030
321	4102
321	4367
321	4559
321	4634
321	4737
322	338
322	351
322	391
322	410
322	466
322	581
322	583
322	663
322	765
322	771
322	803
322	896
322	921
322	998
322	1121
322	1319
322	1343
322	1360
322	1366
322	1398
322	1412
322	1470
322	1477
322	1485
322	1501
322	1555
322	1589
322	1613
322	1620
322	1657
322	1865
322	2141
322	2227
322	2233
322	2324
322	2380
322	2406
322	2438
322	2474
322	3131
322	3397
322	3439
322	3669
322	4067
322	4286
322	4336
322	4374
322	4585
322	4592
322	4813
322	4962
323	329
323	396
323	422
323	436
323	483
323	529
323	541
323	568
323	581
323	608
323	656
323	766
323	810
323	815
323	886
323	926
323	976
323	1065
323	1074
323	1119
323	1129
323	1146
323	1268
323	1313
323	1329
323	1487
323	1527
323	1583
323	1732
323	1749
323	1772
323	1781
323	1783
323	1812
323	1888
323	1976
323	2028
323	2186
323	2224
323	2235
323	2384
323	2399
323	2523
323	2796
323	2851
323	3120
323	3173
323	3321
323	3331
323	3429
323	3444
323	3447
323	3505
323	3603
323	4119
323	4150
323	4220
323	4223
323	4381
323	4693
323	4746
323	4889
324	327
324	329
324	398
324	413
324	430
324	452
324	485
324	524
324	624
324	704
324	710
324	804
324	821
324	865
324	962
324	1024
324	1046
324	1094
324	1175
324	1186
324	1345
324	1356
324	1396
324	1511
324	1604
324	1611
324	1651
324	1663
324	1806
324	1819
324	1921
324	2177
324	2519
324	2578
324	3030
324	3306
324	3676
324	3989
324	4143
324	4625
324	4772
324	4967
325	394
325	434
325	451
325	506
325	567
325	593
325	619
325	824
325	912
325	942
325	950
325	971
325	1141
325	1234
325	1239
325	1365
325	1426
325	1471
325	1494
325	1758
325	1791
325	1845
325	1924
325	2367
325	2497
325	2936
325	2945
325	3241
325	3328
325	3431
325	3444
325	3591
325	3768
325	3866
325	3870
325	4014
325	4123
325	4280
325	4281
325	4419
325	4434
325	4888
325	4904
326	386
326	393
326	394
326	437
326	452
326	512
326	629
326	688
326	747
326	833
326	917
326	932
326	945
326	1138
326	1323
326	1338
326	1432
326	1461
326	1536
326	1638
326	1691
326	1815
326	1883
326	2035
326	2061
326	2154
326	2155
326	2299
326	2310
326	2590
326	2621
326	2790
326	2813
326	3056
326	3238
326	3593
326	3825
326	3860
326	3924
326	3996
326	4004
326	4176
326	4478
326	4506
326	4936
327	338
327	409
327	427
327	467
327	584
327	896
327	1017
327	1041
327	1128
327	1171
327	1206
327	1375
327	1656
327	1935
327	2014
327	2167
327	2265
327	2602
327	2706
327	3437
327	3449
327	3469
327	3763
327	3921
327	4044
327	4200
327	4247
328	350
328	351
328	355
328	444
328	449
328	452
328	483
328	492
328	526
328	563
328	571
328	574
328	692
328	795
328	894
328	929
328	946
328	975
328	1049
328	1337
328	1349
328	1356
328	1837
328	1838
328	1953
328	1955
328	1986
328	1987
328	2101
328	2351
328	2356
328	2445
328	2464
328	2477
328	2518
328	2616
328	2900
328	3101
328	3139
328	3199
328	3342
328	3345
328	3943
328	4076
328	4093
328	4261
328	4358
328	4553
328	4717
328	4824
328	4847
329	342
329	356
329	359
329	362
329	369
329	372
329	389
329	395
329	400
329	462
329	493
329	541
329	564
329	586
329	607
329	611
329	678
329	697
329	704
329	769
329	839
329	844
329	849
329	854
329	877
329	927
329	947
329	977
329	1144
329	1161
329	1173
329	1373
329	1485
329	1586
329	1653
329	1705
329	1714
329	1765
329	1813
329	1879
329	1884
329	1912
329	1921
329	2018
329	2046
329	2088
329	2183
329	2345
329	2387
329	2514
329	2564
329	2609
329	2626
329	2704
329	2709
329	2722
329	2738
329	2810
329	2825
329	2910
329	2923
329	2940
329	2972
329	3231
329	3427
329	3560
329	3660
329	3663
329	3838
329	3870
329	4071
329	4083
329	4150
329	4263
329	4266
329	4423
329	4435
329	4712
329	4729
329	4965
330	343
330	426
330	455
330	461
330	466
330	471
330	507
330	514
330	538
330	549
330	553
330	555
330	586
330	634
330	703
330	763
330	857
330	914
330	929
330	991
330	1011
330	1015
330	1040
330	1129
330	1222
330	1280
330	1431
330	1619
330	1703
330	1999
330	2020
330	2036
330	2048
330	2107
330	2172
330	2241
330	2401
330	2584
330	2693
330	2709
330	3071
330	3098
330	3116
330	3160
330	3215
330	3312
330	3344
330	4017
330	4065
330	4450
330	4563
330	4647
330	4713
330	4971
331	462
331	464
331	502
331	517
331	545
331	554
331	575
331	586
331	673
331	735
331	782
331	801
331	802
331	837
331	845
331	849
331	863
331	877
331	936
331	951
331	956
331	1090
331	1121
331	1139
331	1192
331	1234
331	1246
331	1286
331	1357
331	1684
331	1693
331	1704
331	1963
331	2128
331	2176
331	2177
331	2280
331	2485
331	2574
331	2758
331	2802
331	2840
331	2922
331	2955
331	3072
331	3084
331	3247
331	3398
331	3419
331	3448
331	3463
331	3581
331	3767
331	3803
331	3807
331	3923
331	4030
331	4073
331	4137
331	4187
331	4188
331	4222
331	4233
331	4283
331	4458
331	4464
331	4477
331	4556
331	4595
332	393
332	495
332	542
332	598
332	605
332	649
332	668
332	708
332	714
332	727
332	784
332	852
332	904
332	931
332	1074
332	1118
332	1207
332	1210
332	1235
332	1433
332	1713
332	1857
332	1911
332	1936
332	1991
332	2028
332	2162
332	2303
332	2444
332	2605
332	2881
332	2904
332	2997
332	3293
332	3377
332	3444
332	3535
332	3543
332	3745
332	3855
332	3861
332	4222
332	4557
332	4642
332	4854
332	4925
333	512
333	531
333	673
333	755
333	1012
333	1236
333	1264
333	1278
333	1558
333	1766
333	2132
333	2140
333	2267
333	2283
333	2620
333	2671
333	2711
333	2851
333	3011
333	3346
333	3353
333	3528
333	3635
333	3816
333	3889
333	4706
333	4934
333	4946
334	344
334	419
334	504
334	538
334	888
334	1026
334	1215
334	2207
334	2431
334	2456
334	2581
334	2798
334	2928
334	2993
334	3235
334	3332
334	3693
334	3725
334	4375
334	4874
335	365
335	531
335	536
335	553
335	565
335	704
335	735
335	752
335	818
335	830
335	1069
335	1111
335	1320
335	1328
335	1334
335	1515
335	1528
335	1754
335	1888
335	1897
335	1926
335	2017
335	2335
335	2669
335	2716
335	3106
335	3274
335	3731
335	4005
335	4064
335	4232
335	4315
335	4417
336	342
336	424
336	475
336	556
336	661
336	678
336	697
336	772
336	803
336	817
336	850
336	1055
336	1065
336	1205
336	1332
336	1448
336	1490
336	1538
336	1556
336	1602
336	1737
336	1775
336	1787
336	1794
336	1836
336	1878
336	1887
336	2031
336	2179
336	2212
336	2221
336	2391
336	2408
336	2441
336	2451
336	2453
336	2498
336	2519
336	2561
336	2592
336	2600
336	2616
336	2656
336	2685
336	2800
336	2847
336	3094
336	3305
336	3373
336	3412
336	3433
336	3464
336	3587
336	3668
336	3677
336	3700
336	3792
336	4048
336	4136
336	4171
336	4296
336	4691
336	4781
336	4904
336	4913
337	339
337	368
337	401
337	450
337	451
337	492
337	536
337	599
337	785
337	929
337	1030
337	1042
337	1097
337	1191
337	1251
337	1256
337	1298
337	1374
337	1512
337	1678
337	2465
337	2527
337	2657
337	2770
337	2848
337	2884
337	3099
337	3426
337	3591
337	3667
337	3731
337	3910
337	3947
337	3949
337	4234
337	4302
337	4516
337	4597
337	4617
338	446
338	488
338	494
338	502
338	552
338	562
338	684
338	754
338	830
338	875
338	1102
338	1254
338	1294
338	1404
338	1713
338	1734
338	2017
338	2077
338	2333
338	2557
338	2837
338	3460
338	3664
338	3888
338	4111
338	4401
338	4933
339	427
339	441
339	492
339	571
339	580
339	672
339	750
339	753
339	854
339	916
339	1006
339	1250
339	1287
339	1403
339	1844
339	1934
339	2482
339	2580
339	2581
339	2618
339	2799
339	3090
339	3381
339	3484
339	3779
339	4013
339	4016
339	4175
339	4254
339	4282
339	4497
339	4649
339	4722
340	379
340	413
340	446
340	453
340	454
340	498
340	630
340	644
340	718
340	737
340	746
340	788
340	793
340	825
340	876
340	889
340	941
340	1226
340	1283
340	1388
340	1494
340	1543
340	1762
340	1854
340	1982
340	2060
340	2424
340	2499
340	2535
340	2714
340	2789
340	2830
340	2874
340	3029
340	3131
340	3213
340	3418
340	3432
340	3433
340	3455
340	3483
340	3534
340	3635
340	3645
340	3747
340	3852
340	3932
340	4026
340	4128
340	4262
340	4621
340	4663
340	4675
340	4692
340	4821
341	342
341	382
341	453
341	536
341	619
341	712
341	735
341	739
341	779
341	810
341	933
341	987
341	1113
341	1127
341	1152
341	1311
341	1366
341	1394
341	1564
341	1605
341	1917
341	2004
341	2005
341	2410
341	2501
341	2518
341	2707
341	2795
341	2896
341	2937
341	2946
341	3264
341	3504
341	3588
341	3685
341	3813
341	4283
341	4332
341	4538
341	4561
341	4721
341	4902
342	346
342	390
342	425
342	559
342	572
342	574
342	690
342	861
342	928
342	983
342	984
342	1044
342	1050
342	1103
342	1246
342	1303
342	1360
342	1395
342	1580
342	1732
342	1790
342	1998
342	2012
342	2030
342	2431
342	2451
342	2456
342	2568
342	2650
342	2713
342	2745
342	2843
342	2865
342	2907
342	3069
342	3258
342	3408
342	3476
342	3585
342	3730
342	3899
342	3993
342	4006
342	4042
342	4143
342	4154
342	4463
342	4498
342	4508
342	4536
343	396
343	553
343	580
343	604
343	824
343	844
343	854
343	860
343	1090
343	1094
343	1149
343	1221
343	1301
343	1422
343	1582
343	1961
343	2099
343	2381
343	2503
343	2594
343	2796
343	2953
343	3032
343	3645
343	3661
343	3730
343	3743
343	3840
343	3868
343	4075
343	4247
343	4275
343	4346
343	4964
344	468
344	507
344	555
344	572
344	606
344	657
344	798
344	853
344	992
344	1004
344	1165
344	1214
344	1390
344	1461
344	1524
344	1601
344	1603
344	1611
344	1704
344	1752
344	1767
344	1768
344	2013
344	2252
344	2256
344	2407
344	2700
344	3036
344	3058
344	3202
344	3236
344	3570
344	3596
344	3813
344	3937
344	3952
344	4454
344	4514
345	362
345	365
345	386
345	410
345	413
345	437
345	564
345	602
345	662
345	716
345	827
345	865
345	868
345	887
345	908
345	995
345	1033
345	1042
345	1073
345	1136
345	1232
345	1273
345	1428
345	1489
345	1508
345	1529
345	1560
345	1566
345	1707
345	1736
345	1901
345	1926
345	1943
345	1956
345	1958
345	2007
345	2008
345	2121
345	2199
345	2290
345	2294
345	2300
345	2347
345	2368
345	2474
345	2490
345	2522
345	2576
345	2692
345	2696
345	3159
345	3268
345	3273
345	3495
345	3663
345	3954
345	4066
345	4118
345	4224
345	4408
345	4593
345	4903
345	4909
345	4940
346	609
346	618
346	849
346	929
346	1052
346	1247
346	1390
346	1616
346	1641
346	1698
346	1707
346	2109
346	2210
346	2319
346	2431
346	2512
346	2654
346	3023
346	3110
346	3151
346	3387
346	3405
346	3675
346	3778
346	3781
346	3873
346	3876
346	4065
346	4568
346	4737
347	430
347	431
347	504
347	632
347	667
347	736
347	843
347	1032
347	1048
347	1181
347	1630
347	1723
347	1728
347	1736
347	1751
347	1889
347	1899
347	1903
347	2025
347	2165
347	2232
347	2605
347	2694
347	2983
347	3125
347	3155
347	3163
347	3265
347	3475
347	3813
347	3955
347	4176
347	4653
347	4665
347	4681
347	4769
347	4872
347	4923
348	416
348	427
348	456
348	492
348	507
348	512
348	582
348	665
348	694
348	731
348	812
348	872
348	955
348	1049
348	1053
348	1090
348	1139
348	1164
348	1168
348	1228
348	1497
348	1506
348	1554
348	1571
348	1733
348	1992
348	2006
348	2128
348	2165
348	2317
348	2370
348	2549
348	2867
348	2961
348	3129
348	3202
348	3265
348	4116
348	4150
348	4226
348	4371
348	4524
348	4625
348	4808
348	4978
348	4992
349	358
349	372
349	384
349	418
349	444
349	464
349	514
349	554
349	728
349	745
349	820
349	981
349	1031
349	1137
349	1143
349	1187
349	1238
349	1243
349	1517
349	1542
349	1592
349	1708
349	1823
349	2136
349	2223
349	2295
349	2317
349	2338
349	2417
349	2593
349	2679
349	2708
349	3100
349	3221
349	3841
349	4094
349	4374
349	4410
349	4604
349	4645
349	4651
349	4977
350	763
350	804
350	986
350	1049
350	1057
350	1068
350	1108
350	1293
350	1358
350	1487
350	1610
350	1617
350	1839
350	2257
350	2271
350	2274
350	2275
350	2302
350	2443
350	2452
350	2594
350	2635
350	2665
350	2785
350	2839
350	2851
350	3103
350	3517
350	3954
350	4019
350	4061
350	4234
350	4279
350	4342
350	4743
351	387
351	401
351	413
351	415
351	446
351	448
351	501
351	579
351	644
351	678
351	696
351	837
351	933
351	1032
351	1071
351	1244
351	1268
351	1340
351	1425
351	1451
351	1547
351	1554
351	1579
351	1599
351	1613
351	1704
351	1720
351	1805
351	1943
351	1981
351	2079
351	2329
351	2639
351	2952
351	3135
351	3265
351	3508
351	3579
351	3678
351	3744
351	3809
351	4273
351	4302
351	4433
351	4844
351	4862
352	354
352	367
352	380
352	451
352	491
352	525
352	579
352	619
352	779
352	838
352	847
352	853
352	985
352	1016
352	1036
352	1051
352	1068
352	1075
352	1127
352	1251
352	1515
352	1765
352	1916
352	2002
352	2015
352	2031
352	2095
352	2172
352	2205
352	2410
352	2432
352	2517
352	2700
352	3015
352	3075
352	3274
352	3370
352	3486
352	3491
352	3540
352	3786
352	4553
352	4968
353	355
353	383
353	515
353	596
353	670
353	760
353	1078
353	1117
353	1144
353	1178
353	1330
353	1347
353	1417
353	1443
353	1457
353	1459
353	1590
353	1629
353	1933
353	2036
353	2038
353	2120
353	2121
353	2229
353	2361
353	2395
353	2561
353	2612
353	2725
353	2825
353	2978
353	3027
353	3036
353	3414
353	3484
353	3945
353	3994
353	4034
353	4104
353	4845
353	4953
354	649
354	860
354	931
354	971
354	992
354	1107
354	1242
354	1262
354	1420
354	1470
354	1517
354	1600
354	1761
354	1777
354	2013
354	2122
354	2310
354	2338
354	2355
354	2395
354	2397
354	2516
354	2709
354	2752
354	3360
354	3367
354	3404
354	3504
354	3583
354	3714
354	3810
354	3976
354	4251
354	4534
354	4555
354	4727
354	4805
354	4868
355	386
355	467
355	569
355	611
355	832
355	843
355	940
355	953
355	960
355	1134
355	1230
355	1300
355	1363
355	1371
355	1552
355	1576
355	1707
355	1875
355	2047
355	2101
355	2116
355	2161
355	2167
355	2183
355	2282
355	2601
355	2634
355	2731
355	3147
355	3239
355	3372
355	3435
355	3641
355	3754
355	3998
355	4323
355	4462
355	4539
355	4616
355	4721
355	4757
355	4829
355	4830
356	372
356	389
356	408
356	409
356	432
356	590
356	664
356	722
356	731
356	823
356	904
356	947
356	1030
356	1061
356	1190
356	1252
356	1365
356	1541
356	1692
356	1773
356	2139
356	2196
356	2262
356	2429
356	2470
356	2621
356	2646
356	2677
356	2843
356	3738
356	3946
356	4265
356	4481
356	4573
356	4671
356	4680
356	4824
357	435
357	498
357	513
357	521
357	541
357	544
357	576
357	582
357	601
357	615
357	734
357	770
357	785
357	787
357	794
357	812
357	867
357	910
357	967
357	1061
357	1174
357	1200
357	1290
357	1307
357	1630
357	1633
357	1809
357	1940
357	1960
357	1972
357	2075
357	2148
357	2150
357	2172
357	2173
357	2193
357	2205
357	2242
357	2305
357	2368
357	2455
357	2587
357	2773
357	2778
357	2941
357	2971
357	3001
357	3085
357	3150
357	3156
357	3167
357	3186
357	3194
357	3246
357	3262
357	3304
357	3311
357	3342
357	3359
357	3387
357	3437
357	3527
357	3829
357	3839
357	3981
357	3991
357	4058
357	4078
357	4122
357	4286
357	4315
357	4338
357	4576
357	4697
357	4784
357	4848
357	4850
357	4870
357	4938
358	361
358	377
358	429
358	446
358	466
358	501
358	524
358	565
358	600
358	614
358	692
358	780
358	840
358	865
358	908
358	924
358	934
358	960
358	1084
358	1209
358	1249
358	1294
358	1391
358	1411
358	1538
358	1641
358	1883
358	1896
358	1920
358	2032
358	2036
358	2064
358	2152
358	2240
358	2309
358	2310
358	2404
358	2428
358	2433
358	2450
358	2468
358	2564
358	2733
358	2918
358	3593
358	3789
358	3983
358	4104
358	4120
358	4122
358	4169
358	4198
358	4205
358	4210
358	4458
358	4477
358	4540
358	4959
359	363
359	364
359	368
359	433
359	591
359	606
359	817
359	823
359	959
359	975
359	1230
359	1290
359	1421
359	1458
359	1496
359	1535
359	1597
359	1598
359	1600
359	1620
359	1644
359	1723
359	1868
359	1961
359	2071
359	2075
359	2398
359	2581
359	2635
359	2771
359	2818
359	3219
359	3240
359	3420
359	3486
359	3675
359	3819
359	3984
359	4164
360	378
360	391
360	487
360	491
360	513
360	543
360	570
360	578
360	726
360	796
360	917
360	969
360	1138
360	1150
360	1166
360	1293
360	1352
360	1417
360	1563
360	1819
360	1998
360	2069
360	2082
360	2296
360	2331
360	2421
360	2434
360	2530
360	2590
360	2703
360	2814
360	2836
360	2996
360	3182
360	3310
360	3320
360	3442
360	3521
360	3551
360	4265
360	4277
360	4343
360	4786
361	589
361	629
361	685
361	790
361	805
361	900
361	924
361	932
361	973
361	1082
361	1225
361	1272
361	1755
361	1792
361	1886
361	1978
361	2007
361	2016
361	2340
361	2370
361	2912
361	2931
361	2932
361	2994
361	3202
361	3282
361	3292
361	3417
361	3478
361	3681
361	3719
361	3841
361	4001
361	4160
361	4164
361	4420
361	4752
361	4756
361	4864
362	373
362	412
362	539
362	631
362	635
362	820
362	917
362	989
362	1008
362	1115
362	1128
362	1151
362	1162
362	1246
362	1301
362	1349
362	1394
362	1523
362	1644
362	2001
362	2059
362	2077
362	2235
362	2334
362	2513
362	2662
362	2994
362	3265
362	3307
362	3463
362	3594
362	3722
362	3784
362	3804
362	4083
362	4158
362	4198
362	4344
362	4373
362	4415
362	4498
362	4587
362	4603
362	4695
362	4750
362	4885
362	4953
363	378
363	387
363	389
363	442
363	479
363	537
363	539
363	544
363	563
363	583
363	703
363	733
363	769
363	776
363	828
363	940
363	995
363	1016
363	1047
363	1190
363	1423
363	1472
363	1693
363	1700
363	1702
363	1749
363	1753
363	1866
363	2174
363	2291
363	2399
363	2537
363	2560
363	2639
363	2685
363	2734
363	2801
363	2824
363	2856
363	2906
363	2922
363	3124
363	3152
363	3287
363	3550
363	3601
363	3795
363	3849
363	3951
363	4087
363	4200
363	4241
363	4357
363	4413
363	4790
364	433
364	482
364	539
364	560
364	628
364	630
364	711
364	768
364	792
364	822
364	1049
364	1061
364	1252
364	1254
364	1376
364	1610
364	1721
364	1803
364	1816
364	1982
364	2031
364	2065
364	2160
364	2189
364	2222
364	2386
364	2393
364	2615
364	2678
364	2747
364	2880
364	3251
364	3767
364	3841
364	3888
364	4077
364	4140
364	4406
364	4614
364	4657
364	4677
364	4896
364	4993
365	395
365	460
365	471
365	798
365	869
365	872
365	897
365	1007
365	1062
365	1084
365	1113
365	1281
365	1459
365	1474
365	1648
365	1737
365	2227
365	2242
365	2372
365	2496
365	2641
365	2697
365	2810
365	2812
365	2963
365	3015
365	3260
365	3374
365	3507
365	3557
365	3625
365	3701
365	3708
365	3914
365	4173
365	4238
365	4261
365	4523
365	4770
365	4819
366	447
366	657
366	703
366	830
366	947
366	1014
366	1055
366	1103
366	1140
366	1339
366	1411
366	1481
366	1575
366	1756
366	1994
366	2034
366	2065
366	2246
366	2261
366	2290
366	2306
366	2324
366	2651
366	3062
366	3350
366	3596
366	3922
366	4024
366	4135
367	372
367	419
367	435
367	481
367	523
367	595
367	641
367	769
367	826
367	917
367	980
367	1001
367	1006
367	1022
367	1087
367	1126
367	1345
367	1377
367	1382
367	1555
367	1559
367	1575
367	1631
367	1706
367	1776
367	1809
367	1854
367	2037
367	2038
367	2098
367	2104
367	2105
367	2114
367	2168
367	2200
367	2259
367	2294
367	2464
367	2492
367	2642
367	2803
367	2902
367	2904
367	3149
367	3280
367	3323
367	3452
367	3535
367	3558
367	3639
367	3693
367	3836
367	3922
367	4167
367	4741
367	4766
367	4871
367	4933
368	478
368	486
368	511
368	516
368	796
368	835
368	869
368	870
368	941
368	1038
368	1050
368	1204
368	1261
368	1398
368	1404
368	1441
368	1455
368	1522
368	1549
368	1591
368	1626
368	1649
368	1694
368	1785
368	2097
368	2253
368	2260
368	2322
368	2878
368	2913
368	3079
368	3233
368	3535
368	3604
368	3667
368	3933
368	4008
368	4139
368	4148
368	4203
368	4469
368	4913
368	4953
368	4954
369	405
369	414
369	450
369	595
369	741
369	756
369	757
369	765
369	977
369	1000
369	1008
369	1160
369	1181
369	1244
369	1264
369	1279
369	1338
369	1426
369	1455
369	1481
369	1606
369	1635
369	1721
369	1871
369	1883
369	2227
369	2340
369	2367
369	2461
369	2579
369	2605
369	2747
369	2810
369	2843
369	2871
369	2925
369	3208
369	3245
369	3318
369	3377
369	3453
369	3575
369	3617
369	4163
369	4324
369	4327
369	4559
369	4563
369	4870
370	496
370	703
370	902
370	1051
370	1055
370	1056
370	1174
370	1200
370	1220
370	1249
370	1368
370	1480
370	1864
370	2045
370	2095
370	2106
370	2383
370	2527
370	2612
370	2731
370	2795
370	2866
370	2916
370	3031
370	3037
370	3121
370	3192
370	3213
370	3235
370	3239
370	3241
370	3293
370	3395
370	3564
370	3595
370	3599
370	3936
370	4028
370	4149
370	4377
370	4523
370	4547
370	4806
371	395
371	426
371	482
371	517
371	582
371	599
371	669
371	706
371	903
371	942
371	1003
371	1008
371	1070
371	1148
371	1150
371	1155
371	1176
371	1240
371	1282
371	1314
371	1341
371	1430
371	1463
371	1591
371	1597
371	1790
371	1812
371	1857
371	1905
371	1974
371	2010
371	2141
371	2144
371	2151
371	2221
371	2255
371	2283
371	2318
371	2339
371	2364
371	2478
371	2491
371	2631
371	2695
371	2731
371	2841
371	2913
371	2978
371	3302
371	3325
371	3454
371	3578
371	3602
371	3628
371	3646
371	3699
371	3701
371	3736
371	3784
371	3797
371	3907
371	4181
371	4341
371	4347
371	4374
371	4530
371	4539
371	4694
371	4743
372	401
372	405
372	568
372	583
372	656
372	814
372	907
372	922
372	1034
372	1041
372	1072
372	1107
372	1231
372	1310
372	1440
372	1670
372	1904
372	1954
372	2010
372	2033
372	2170
372	2223
372	2349
372	2382
372	2475
372	2542
372	2659
372	2670
372	2692
372	2792
372	2906
372	2995
372	3047
372	3217
372	3301
372	3767
372	3832
372	4018
372	4129
372	4625
372	4768
373	388
373	409
373	472
373	477
373	593
373	598
373	635
373	636
373	651
373	722
373	737
373	770
373	964
373	966
373	990
373	1046
373	1090
373	1180
373	1192
373	1254
373	1290
373	1307
373	1334
373	1341
373	1448
373	1503
373	1541
373	1733
373	1908
373	1932
373	1937
373	2042
373	2046
373	2053
373	2181
373	2184
373	2215
373	2317
373	2324
373	2378
373	2493
373	2621
373	2732
373	2828
373	2877
373	2880
373	2934
373	3054
373	3308
373	3312
373	3474
373	3568
373	3592
373	4046
373	4128
373	4273
373	4339
373	4401
373	4512
373	4794
373	4814
373	4878
373	4981
374	384
374	385
374	442
374	469
374	561
374	577
374	594
374	643
374	662
374	727
374	828
374	838
374	907
374	1039
374	1105
374	1142
374	1193
374	1208
374	1209
374	1298
374	1302
374	1410
374	1448
374	1567
374	1605
374	1642
374	1746
374	1828
374	1832
374	2081
374	2087
374	2125
374	2174
374	2220
374	2255
374	2281
374	2571
374	2709
374	2781
374	3051
374	3296
374	3376
374	3685
374	3730
374	3779
374	3781
374	3895
374	4026
374	4073
374	4370
374	4446
374	4636
374	4717
375	405
375	427
375	454
375	455
375	470
375	478
375	486
375	537
375	621
375	633
375	666
375	702
375	806
375	817
375	952
375	957
375	1013
375	1051
375	1067
375	1102
375	1190
375	1228
375	1247
375	1376
375	1416
375	1452
375	1466
375	1733
375	1743
375	1753
375	1825
375	2029
375	2136
375	2212
375	2257
375	2268
375	2369
375	2383
375	2385
375	2542
375	2776
375	3037
375	3070
375	3074
375	3105
375	3131
375	3148
375	3252
375	3392
375	3398
375	3544
375	3651
375	3838
375	3887
375	3944
375	3966
375	4118
375	4140
375	4215
375	4276
375	4380
375	4386
375	4452
375	4633
375	4888
375	4997
376	452
376	458
376	650
376	686
376	740
376	748
376	781
376	847
376	858
376	859
376	954
376	1023
376	1044
376	1220
376	1241
376	1297
376	1326
376	1431
376	1475
376	1763
376	1765
376	1847
376	1876
376	1925
376	2037
376	2117
376	2122
376	2345
376	2380
376	2426
376	2619
376	2763
376	2779
376	3171
376	3339
376	3358
376	3376
376	3645
376	3836
376	3926
376	4047
376	4540
376	4616
376	4688
376	4999
377	483
377	613
377	683
377	841
377	1236
377	2086
377	2250
377	2575
377	2579
377	2739
377	2881
377	4021
377	4567
377	4661
378	523
378	526
378	540
378	588
378	589
378	671
378	691
378	707
378	711
378	745
378	872
378	922
378	985
378	1062
378	1381
378	1724
378	1763
378	1905
378	1913
378	2021
378	2164
378	2203
378	2209
378	2410
378	2479
378	2490
378	2503
378	2537
378	2540
378	2593
378	2689
378	2790
378	2962
378	3105
378	3293
378	3318
378	3574
378	3727
378	3893
378	4024
378	4270
378	4566
378	4580
378	4588
378	4593
379	404
379	479
379	552
379	592
379	605
379	662
379	766
379	835
379	841
379	844
379	1018
379	1052
379	1065
379	1078
379	1153
379	1155
379	1229
379	1232
379	1237
379	1289
379	1299
379	1382
379	1540
379	1632
379	1652
379	1678
379	1688
379	1700
379	1708
379	1727
379	1855
379	1872
379	1893
379	1950
379	1966
379	2032
379	2256
379	2331
379	2356
379	2370
379	2598
379	2663
379	2748
379	3003
379	3036
379	3039
379	3250
379	3437
379	3482
379	3493
379	3497
379	3506
379	3643
379	3833
379	3882
379	4067
379	4102
379	4275
379	4393
379	4505
379	4827
380	452
380	459
380	500
380	642
380	766
380	828
380	903
380	922
380	981
380	996
380	1128
380	1136
380	1257
380	1265
380	1301
380	1389
380	1477
380	1510
380	1514
380	1572
380	1649
380	1654
380	1733
380	1804
380	2307
380	2327
380	2422
380	2486
380	2520
380	2666
380	2741
380	2814
380	2881
380	2888
380	2941
380	3005
380	3020
380	3210
380	3490
380	3667
380	3673
380	3824
380	4156
380	4404
380	4419
380	4612
380	4659
380	4665
380	4876
381	400
381	415
381	443
381	475
381	532
381	570
381	650
381	773
381	799
381	843
381	861
381	875
381	935
381	1227
381	1357
381	1402
381	1463
381	1809
381	1835
381	1941
381	2139
381	2725
381	2784
381	2799
381	2921
381	2956
381	3004
381	3030
381	3106
381	3405
381	3447
381	3458
381	3503
381	3598
381	3675
381	3805
381	3808
381	3863
381	4026
381	4603
381	4629
381	4687
381	4836
382	397
382	519
382	557
382	571
382	701
382	913
382	981
382	1109
382	1148
382	1193
382	1215
382	1222
382	1273
382	1278
382	1376
382	1429
382	1512
382	1600
382	1829
382	2001
382	2965
382	3008
382	3009
382	3576
382	3856
382	4156
382	4643
382	4815
382	4994
383	445
383	474
383	569
383	607
383	609
383	625
383	712
383	824
383	856
383	896
383	999
383	1004
383	1343
383	1449
383	1563
383	1646
383	1830
383	1845
383	1906
383	2182
383	2280
383	2332
383	2414
383	2782
383	2794
383	3224
383	3658
383	3821
383	3960
383	4047
383	4255
383	4358
383	4591
384	440
384	503
384	532
384	562
384	606
384	614
384	622
384	654
384	715
384	762
384	805
384	1074
384	1273
384	1362
384	1666
384	1782
384	1861
384	1991
384	2002
384	2066
384	2069
384	2109
384	2300
384	2747
384	2806
384	2934
384	3002
384	3070
384	3249
384	3317
384	3323
384	3329
384	3385
384	3447
384	3563
384	3752
384	3773
384	3816
384	3999
384	4175
384	4461
384	4585
384	4675
385	473
385	560
385	570
385	647
385	867
385	992
385	1167
385	1453
385	1768
385	1807
385	2093
385	2526
385	2680
385	3100
385	3239
385	3698
385	4212
385	4825
385	4899
386	610
386	708
386	832
386	1304
386	1671
386	1825
386	1833
386	2249
386	2528
386	2575
386	2591
386	2610
386	2865
386	3412
386	4094
386	4257
386	4481
386	4667
387	473
387	521
387	568
387	601
387	612
387	783
387	917
387	972
387	1046
387	1138
387	1163
387	1202
387	1274
387	1310
387	1319
387	1595
387	1654
387	1672
387	1718
387	1720
387	2156
387	2370
387	2453
387	2486
387	2888
387	3083
387	3084
387	3189
387	3259
387	3363
387	3642
387	3760
387	4240
387	4261
387	4317
387	4545
387	4754
387	4781
388	400
388	407
388	410
388	447
388	464
388	493
388	514
388	539
388	597
388	699
388	724
388	742
388	794
388	978
388	1036
388	1077
388	1096
388	1147
388	1182
388	1380
388	1509
388	1840
388	1961
388	2177
388	2215
388	2321
388	2348
388	2407
388	2442
388	2529
388	2537
388	2573
388	2678
388	2833
388	2846
388	2847
388	2849
388	2948
388	3141
388	3215
388	3337
388	3375
388	3459
388	3478
388	3751
388	4005
388	4094
388	4301
388	4357
388	4549
388	4784
388	4873
388	4997
389	409
389	434
389	541
389	649
389	701
389	707
389	750
389	848
389	884
389	1010
389	1200
389	1212
389	1346
389	1385
389	1416
389	1443
389	1805
389	1867
389	1879
389	2049
389	2056
389	2295
389	2447
389	2878
389	3093
389	3251
389	3369
389	3635
389	3703
389	3847
389	4095
389	4157
389	4243
389	4338
389	4500
389	4653
389	4694
390	413
390	415
390	440
390	465
390	540
390	545
390	550
390	607
390	615
390	650
390	739
390	742
390	905
390	1034
390	1093
390	1114
390	1290
390	1325
390	1481
390	1495
390	1587
390	1752
390	1828
390	1831
390	2089
390	2112
390	2216
390	2258
390	2278
390	2548
390	2696
390	2879
390	2916
390	2921
390	2957
390	2958
390	3033
390	3276
390	3318
390	3597
390	3600
390	3643
390	3701
390	3932
390	4077
390	4285
390	4363
390	4485
390	4846
390	4850
390	4861
390	4895
391	392
391	394
391	419
391	433
391	446
391	475
391	524
391	539
391	547
391	568
391	733
391	863
391	954
391	988
391	1126
391	1191
391	1200
391	1207
391	1240
391	1329
391	1380
391	1402
391	1420
391	1426
391	1435
391	1462
391	1501
391	1516
391	1541
391	1595
391	1604
391	1613
391	1675
391	1705
391	1844
391	1860
391	1890
391	1895
391	1953
391	2047
391	2082
391	2102
391	2190
391	2257
391	2360
391	2546
391	2608
391	2659
391	2812
391	2932
391	3037
391	3203
391	3504
391	3549
391	3589
391	3821
391	4082
391	4315
391	4410
391	4417
391	4473
391	4481
391	4655
391	4760
391	4825
391	4846
392	420
392	427
392	497
392	625
392	825
392	880
392	960
392	963
392	1031
392	1287
392	1374
392	1442
392	1447
392	1616
392	1740
392	1817
392	1848
392	2517
392	2533
392	2608
392	2767
392	2788
392	3014
392	3140
392	3944
392	4112
392	4219
392	4397
392	4405
392	4766
392	4890
392	4987
393	402
393	496
393	511
393	519
393	542
393	606
393	663
393	672
393	813
393	888
393	977
393	990
393	1029
393	1109
393	1131
393	1161
393	1213
393	1239
393	1341
393	1347
393	1377
393	1378
393	1386
393	1581
393	1595
393	1632
393	1809
393	1839
393	1849
393	1889
393	1980
393	1989
393	1999
393	2070
393	2310
393	2421
393	2682
393	2766
393	2810
393	2855
393	2871
393	2989
393	3022
393	3102
393	3137
393	3158
393	3309
393	3318
393	3952
393	4218
393	4223
393	4472
393	4667
393	4899
393	4956
394	403
394	460
394	466
394	478
394	688
394	693
394	756
394	839
394	892
394	910
394	930
394	1073
394	1086
394	1097
394	1101
394	1192
394	1200
394	1254
394	1310
394	1330
394	1397
394	1610
394	1618
394	1787
394	1877
394	2043
394	2072
394	2136
394	2181
394	2244
394	2465
394	2501
394	2586
394	2600
394	2648
394	2721
394	2724
394	2726
394	2770
394	2908
394	2980
394	2987
394	3020
394	3105
394	3134
394	3268
394	3365
394	3377
394	3562
394	3567
394	3594
394	3675
394	3689
394	3903
394	3926
394	3938
394	4038
394	4068
394	4079
394	4183
394	4286
394	4689
395	521
395	523
395	624
395	693
395	767
395	815
395	928
395	988
395	1072
395	1085
395	1143
395	1182
395	1350
395	1374
395	1384
395	1414
395	1501
395	1550
395	1560
395	1580
395	1650
395	1847
395	1849
395	1891
395	2069
395	2282
395	2322
395	2418
395	2587
395	2693
395	2732
395	2841
395	2887
395	3060
395	3070
395	3108
395	3115
395	3270
395	3435
395	3662
395	3714
395	3753
395	3777
395	3933
395	4219
395	4279
395	4323
395	4366
395	4388
395	4394
395	4427
395	4441
395	4911
395	4987
396	404
396	446
396	447
396	547
396	592
396	737
396	771
396	794
396	886
396	901
396	1095
396	1118
396	1206
396	1450
396	1454
396	1532
396	2195
396	2727
396	3210
396	3248
396	3333
396	4268
396	4362
397	469
397	476
397	619
397	803
397	851
397	881
397	954
397	1004
397	1106
397	1149
397	1230
397	1292
397	1305
397	1328
397	1697
397	1814
397	1881
397	1957
397	1969
397	1986
397	1993
397	2130
397	2135
397	2222
397	2428
397	2461
397	2684
397	2732
397	2780
397	2876
397	3020
397	3184
397	3333
397	3524
397	3663
397	3779
397	4133
397	4255
397	4288
397	4365
397	4400
397	4610
397	4987
398	457
398	517
398	548
398	559
398	568
398	634
398	1301
398	1446
398	1463
398	1742
398	1796
398	2098
398	2223
398	2654
398	2778
398	2869
398	3076
398	3255
398	3378
398	3384
398	3530
398	3631
398	3665
398	3735
398	3824
398	3836
398	3917
398	4266
398	4349
398	4426
398	4438
398	4464
398	4802
398	4822
398	4929
399	417
399	444
399	445
399	462
399	489
399	516
399	558
399	722
399	799
399	818
399	842
399	850
399	875
399	894
399	1015
399	1104
399	1111
399	1184
399	1204
399	1217
399	1353
399	1394
399	1412
399	1535
399	1541
399	1548
399	1587
399	1605
399	1726
399	1794
399	2067
399	2081
399	2149
399	2277
399	2299
399	2328
399	2441
399	2743
399	2748
399	2860
399	2891
399	2902
399	3379
399	3448
399	3601
399	3731
399	3747
399	3809
399	4020
399	4123
399	4151
399	4292
399	4445
399	4558
399	4668
399	4783
399	4797
399	4839
400	421
400	496
400	637
400	677
400	734
400	765
400	786
400	830
400	901
400	1201
400	1739
400	1762
400	1879
400	2035
400	2171
400	2210
400	2221
400	2307
400	2314
400	2484
400	2505
400	2514
400	2602
400	2670
400	2707
400	2770
400	2976
400	3002
400	3278
400	3339
400	3555
400	4555
400	4568
400	4666
400	4721
400	4773
400	4789
400	4941
401	431
401	477
401	526
401	544
401	556
401	588
401	731
401	737
401	803
401	831
401	855
401	905
401	1052
401	1091
401	1099
401	1127
401	1134
401	1157
401	1162
401	1180
401	1241
401	1280
401	1360
401	1377
401	1423
401	1446
401	1471
401	1477
401	1494
401	1495
401	1535
401	1579
401	1599
401	1629
401	1689
401	1694
401	1777
401	1895
401	2031
401	2219
401	2295
401	2316
401	2362
401	2399
401	2570
401	2575
401	2584
401	2585
401	2965
401	2999
401	3336
401	3419
401	3945
401	4084
401	4108
401	4148
401	4218
401	4362
401	4430
401	4635
401	4653
402	406
402	438
402	447
402	519
402	537
402	549
402	803
402	914
402	960
402	976
402	1124
402	1127
402	1210
402	1247
402	1306
402	1490
402	1606
402	1704
402	1712
402	2074
402	2092
402	2303
402	2316
402	2599
402	2638
402	2711
402	2730
402	2761
402	2857
402	3013
402	3089
402	3195
402	3441
402	3665
402	4153
402	4248
402	4715
402	4950
403	414
403	420
403	422
403	452
403	458
403	461
403	525
403	563
403	573
403	702
403	737
403	781
403	825
403	829
403	953
403	1116
403	1175
403	1260
403	1360
403	1483
403	1672
403	1843
403	1846
403	1873
403	2074
403	2110
403	2270
403	2457
403	2460
403	2508
403	2642
403	2644
403	2711
403	2764
403	2891
403	2944
403	2947
403	3079
403	3120
403	3403
403	3648
403	3666
403	3773
403	4044
403	4273
403	4348
403	4505
403	4568
403	4606
403	4642
403	4693
403	4718
403	4731
403	4737
403	4834
404	441
404	570
404	609
404	781
404	887
404	968
404	1000
404	1297
404	1311
404	1680
404	2213
404	2825
404	2973
404	3100
404	3213
404	3270
404	3442
404	3588
404	4298
404	4328
404	4457
404	4973
405	482
405	555
405	567
405	637
405	638
405	648
405	652
405	731
405	819
405	855
405	866
405	877
405	1014
405	1091
405	1182
405	1228
405	1262
405	1276
405	1313
405	1393
405	1440
405	1606
405	1720
405	1755
405	1987
405	2051
405	2218
405	2264
405	2440
405	2773
405	2869
405	2889
405	2993
405	3114
405	3213
405	3239
405	3253
405	3358
405	3442
405	3501
405	3682
405	3805
405	4588
405	4940
406	498
406	566
406	609
406	635
406	885
406	898
406	980
406	1123
406	1291
406	1352
406	1574
406	1770
406	1907
406	1945
406	2037
406	2177
406	2201
406	3054
406	3297
406	3615
406	3668
406	3835
406	3862
406	3970
406	4230
406	4312
406	4544
407	411
407	689
407	846
407	874
407	1296
407	1421
407	1599
407	1613
407	1930
407	1960
407	2145
407	2617
407	2752
407	3470
408	459
408	489
408	502
408	590
408	613
408	641
408	742
408	748
408	766
408	784
408	888
408	903
408	1078
408	1146
408	1147
408	1234
408	1424
408	1620
408	1715
408	1794
408	1797
408	1803
408	1824
408	1825
408	1832
408	2140
408	2317
408	2390
408	2435
408	3112
408	3120
408	3193
408	3260
408	3328
408	3624
408	4182
408	4510
408	4705
408	4795
408	4866
408	4968
408	4992
409	419
409	620
409	642
409	694
409	701
409	749
409	792
409	798
409	811
409	1061
409	1112
409	1131
409	1225
409	1273
409	1377
409	1392
409	1458
409	1473
409	1652
409	1817
409	1843
409	2233
409	2330
409	2396
409	2556
409	2792
409	2802
409	2805
409	2888
409	2918
409	3078
409	3080
409	3103
409	3149
409	3151
409	3169
409	3268
409	3401
409	3449
409	3457
409	3792
409	3818
409	3833
409	3838
409	3953
409	4113
409	4134
409	4534
409	4566
409	4569
409	4634
409	4715
409	4748
409	4771
409	4928
410	434
410	436
410	440
410	503
410	714
410	761
410	771
410	853
410	909
410	929
410	935
410	991
410	995
410	1062
410	1123
410	1199
410	1216
410	1591
410	1658
410	1714
410	1785
410	1875
410	1999
410	2146
410	2166
410	2332
410	2505
410	2548
410	2654
410	2663
410	3113
410	3305
410	3317
410	3369
410	3426
410	3513
410	3687
410	3841
410	4223
410	4392
410	4614
411	421
411	571
411	576
411	786
411	960
411	1016
411	1027
411	1226
411	1379
411	1405
411	1407
411	1424
411	1537
411	1567
411	1568
411	1609
411	1665
411	1688
411	1716
411	1937
411	2069
411	2091
411	2184
411	2284
411	2379
411	2693
411	2710
411	2803
411	2828
411	2835
411	2899
411	3047
411	3066
411	3255
411	3378
411	3383
411	3782
411	3971
411	3984
411	4446
411	4499
411	4596
411	4816
411	4948
411	4953
412	529
412	534
412	535
412	554
412	573
412	844
412	878
412	1034
412	1119
412	1139
412	1372
412	1438
412	1486
412	1748
412	1767
412	1769
412	1822
412	1922
412	1946
412	2094
412	2240
412	2244
412	2253
412	2267
412	2295
412	2647
412	2779
412	2982
412	2991
412	2992
412	3125
412	3197
412	3304
412	3318
412	3403
412	3857
412	3894
412	4051
412	4089
412	4150
412	4159
412	4265
412	4459
413	423
413	429
413	463
413	508
413	709
413	773
413	814
413	997
413	1001
413	1082
413	1270
413	1358
413	1716
413	1884
413	1974
413	2039
413	2214
413	2303
413	2474
413	2790
413	2807
413	2834
413	3508
413	3707
413	4603
413	4615
413	4786
413	4931
413	4950
414	511
414	530
414	751
414	916
414	1124
414	1214
414	1283
414	1296
414	1415
414	1496
414	1553
414	1556
414	1598
414	1621
414	1858
414	2172
414	2341
414	2557
414	2670
414	3410
414	3678
414	3845
414	3868
414	4039
414	4570
415	465
415	509
415	574
415	734
415	787
415	833
415	887
415	999
415	1136
415	1234
415	1323
415	1800
415	1830
415	1858
415	2320
415	2480
415	2657
415	2678
415	2779
415	3038
415	3393
415	3672
415	3878
415	4492
416	417
416	487
416	490
416	508
416	515
416	559
416	579
416	583
416	584
416	585
416	706
416	708
416	730
416	884
416	911
416	925
416	998
416	1021
416	1134
416	1140
416	1165
416	1254
416	1261
416	1275
416	1457
416	1665
416	1878
416	1882
416	1909
416	1986
416	2088
416	2147
416	2153
416	2171
416	2232
416	2535
416	2810
416	2920
416	3104
416	3112
416	3236
416	3284
416	3406
416	3580
416	3779
416	3796
416	3800
416	3875
416	3886
416	3986
416	4079
416	4100
416	4216
416	4302
416	4590
416	4620
416	4729
416	4947
417	432
417	467
417	503
417	517
417	522
417	549
417	649
417	669
417	674
417	724
417	759
417	827
417	837
417	865
417	885
417	964
417	1138
417	1276
417	1371
417	1443
417	1798
417	1931
417	1961
417	1979
417	2412
417	2462
417	2539
417	2697
417	3192
417	3258
417	3342
417	3805
417	3851
417	4036
417	4085
417	4760
417	4936
417	4943
417	4958
418	452
418	468
418	518
418	587
418	623
418	654
418	710
418	836
418	921
418	944
418	966
418	977
418	991
418	1058
418	1159
418	1172
418	1182
418	1269
418	1305
418	1315
418	1367
418	1434
418	1476
418	1562
418	1656
418	1800
418	1851
418	1894
418	1938
418	2201
418	2261
418	2445
418	2504
418	2552
418	2591
418	2616
418	2739
418	3144
418	3353
418	3381
418	3621
418	3643
418	4174
418	4375
418	4565
418	4858
418	4868
418	4999
419	468
419	490
419	504
419	535
419	638
419	701
419	863
419	1536
419	1565
419	1729
419	1800
419	1841
419	1844
419	2663
419	2779
419	2785
419	2813
419	2859
419	3208
419	3408
419	3531
419	4044
419	4138
419	4252
419	4274
419	4352
419	4764
419	4824
420	435
420	623
420	749
420	773
420	778
420	819
420	828
420	902
420	951
420	952
420	953
420	1081
420	1133
420	1143
420	1195
420	1359
420	1387
420	1443
420	1491
420	1496
420	1630
420	1658
420	1711
420	1784
420	1887
420	1950
420	2070
420	2124
420	2227
420	2278
420	2287
420	2336
420	2390
420	2465
420	2471
420	2510
420	2544
420	2594
420	2606
420	2734
420	2764
420	2769
420	2825
420	2911
420	2935
420	2967
420	3135
420	3219
420	3242
420	3366
420	3487
420	3558
420	3705
420	3810
420	4405
420	4472
420	4505
420	4544
420	4555
420	4565
420	4622
420	4777
420	4827
420	4850
420	4990
421	517
421	550
421	613
421	655
421	889
421	976
421	980
421	1090
421	1098
421	1114
421	1117
421	1194
421	1229
421	1232
421	1306
421	1356
421	1380
421	1403
421	1415
421	1545
421	1601
421	1699
421	1730
421	1748
421	1751
421	1769
421	1808
421	1880
421	1994
421	2022
421	2118
421	2162
421	2576
421	2768
421	2903
421	3161
421	3240
421	3288
421	3506
421	3520
421	3568
421	3638
421	3868
421	3980
421	4074
421	4288
421	4292
421	4313
421	4418
421	4568
421	4582
421	4675
421	4847
421	4885
422	553
422	633
422	692
422	735
422	800
422	856
422	983
422	1055
422	1064
422	1083
422	1253
422	1309
422	1345
422	1354
422	1360
422	1430
422	1444
422	1531
422	1557
422	1686
422	1802
422	1854
422	1934
422	1936
422	2010
422	2097
422	2135
422	2285
422	2287
422	2308
422	2326
422	2601
422	2669
422	2961
422	2998
422	3426
422	3545
422	3690
422	3708
422	4057
422	4415
422	4614
422	4744
422	4919
423	655
423	657
423	659
423	692
423	696
423	739
423	804
423	871
423	963
423	987
423	1006
423	1035
423	1160
423	1336
423	1475
423	1485
423	1524
423	1797
423	2041
423	2110
423	2127
423	2365
423	2462
423	2843
423	2984
423	3203
423	3430
423	3482
423	3781
423	3867
423	4038
423	4205
423	4243
423	4718
423	4765
423	4809
424	463
424	691
424	812
424	1014
424	1058
424	1074
424	1274
424	1601
424	1674
424	1724
424	2089
424	2095
424	2107
424	2208
424	2242
424	2279
424	2332
424	2375
424	2397
424	2479
424	3130
424	3396
424	3686
424	3905
424	4106
424	4147
424	4164
424	4182
424	4363
424	4643
424	4974
425	472
425	517
425	652
425	757
425	854
425	876
425	925
425	1131
425	1170
425	1189
425	1266
425	1278
425	1327
425	1441
425	1600
425	1666
425	1783
425	2024
425	2035
425	2061
425	2282
425	2378
425	2713
425	3181
425	3227
425	3332
425	3551
425	3572
425	3763
425	3764
425	3807
425	4154
425	4249
425	4703
425	4706
425	4851
426	529
426	555
426	659
426	707
426	727
426	738
426	903
426	947
426	1085
426	1126
426	1145
426	1386
426	1527
426	1568
426	1625
426	1809
426	1818
426	1882
426	2023
426	2051
426	2151
426	2186
426	2203
426	2239
426	2251
426	2269
426	2441
426	2478
426	2556
426	2594
426	2641
426	3157
426	3185
426	3305
426	3352
426	3502
426	4208
426	4272
426	4450
426	4759
426	4763
426	4827
427	446
427	471
427	536
427	567
427	570
427	588
427	619
427	656
427	664
427	689
427	699
427	761
427	809
427	846
427	858
427	938
427	980
427	1035
427	1038
427	1138
427	1145
427	1147
427	1215
427	1348
427	1379
427	1403
427	1421
427	1456
427	1512
427	1556
427	1691
427	1867
427	1957
427	1963
427	2011
427	2153
427	2305
427	2369
427	2485
427	2687
427	2706
427	2923
427	3112
427	3239
427	3371
427	3412
427	3474
427	3701
427	3720
427	3921
427	4001
427	4088
427	4149
427	4249
427	4276
427	4457
427	4561
427	4562
427	4616
427	4658
427	4680
427	4773
427	4819
427	4917
428	494
428	551
428	654
428	726
428	728
428	730
428	905
428	1135
428	1160
428	1263
428	1465
428	1608
428	1628
428	1665
428	1710
428	1712
428	2222
428	2272
428	2295
428	2432
428	2663
428	2678
428	2774
428	3080
428	3129
428	3249
428	3593
428	3747
428	3860
428	4021
428	4150
428	4514
428	4594
428	4724
428	4809
428	4832
428	4890
428	4912
428	4961
429	828
429	1036
429	1115
429	1166
429	1213
429	1217
429	1466
429	1527
429	1593
429	1629
429	1644
429	1787
429	1870
429	1909
429	1921
429	2191
429	2271
429	2278
429	2498
429	2664
429	2863
429	3069
429	3095
429	3109
429	3560
429	3663
429	3696
429	3733
429	4399
429	4561
429	4620
429	4770
429	4901
430	499
430	517
430	558
430	568
430	690
430	778
430	1074
430	1075
430	1163
430	1299
430	1329
430	1333
430	1342
430	1375
430	1425
430	1584
430	1884
430	1917
430	2170
430	2298
430	2839
430	3021
430	4172
430	4542
431	551
431	555
431	595
431	646
431	667
431	686
431	690
431	707
431	779
431	795
431	800
431	831
431	961
431	978
431	1062
431	1185
431	1301
431	1397
431	1503
431	1640
431	1653
431	1736
431	1806
431	2014
431	2065
431	2141
431	2155
431	2508
431	2578
431	2627
431	2898
431	3461
431	3510
431	3894
431	4033
431	4482
431	4530
431	4840
431	4928
432	540
432	544
432	564
432	660
432	683
432	808
432	809
432	836
432	891
432	942
432	963
432	1026
432	1055
432	1056
432	1066
432	1121
432	1212
432	1275
432	1442
432	1497
432	1741
432	1777
432	1895
432	1974
432	1997
432	2089
432	2116
432	2316
432	2408
432	2471
432	2474
432	2494
432	2502
432	2522
432	2607
432	2700
432	2997
432	3059
432	3185
432	3251
432	3298
432	3340
432	3351
432	3562
432	3631
432	3720
432	4238
432	4243
432	4255
432	4291
432	4448
432	4455
432	4473
432	4670
432	4901
433	434
433	447
433	486
433	532
433	544
433	587
433	706
433	770
433	996
433	997
433	1001
433	1018
433	1310
433	1401
433	1449
433	1453
433	1648
433	1700
433	1710
433	1756
433	1865
433	1982
433	2002
433	2417
433	2426
433	2498
433	2580
433	2619
433	2639
433	2717
433	2719
433	2781
433	2797
433	2992
433	3004
433	3042
433	3334
433	3349
433	3474
433	3817
433	3865
433	3910
433	3970
433	3980
433	4054
433	4103
433	4400
433	4608
433	4632
433	4843
433	4892
434	481
434	509
434	528
434	567
434	695
434	753
434	871
434	891
434	909
434	917
434	992
434	1033
434	1118
434	1248
434	1306
434	1334
434	1822
434	1827
434	1920
434	2120
434	2145
434	2202
434	2292
434	2360
434	2433
434	2649
434	2774
434	3165
434	3180
434	3217
434	3271
434	3275
434	3392
434	3514
434	3571
434	3640
434	3702
434	3892
434	4079
434	4160
434	4194
434	4609
434	4645
434	4727
434	4770
434	4836
435	470
435	475
435	479
435	499
435	631
435	658
435	693
435	764
435	769
435	831
435	864
435	865
435	974
435	1025
435	1045
435	1092
435	1115
435	1131
435	1159
435	1196
435	1209
435	1290
435	1505
435	1581
435	1653
435	1673
435	1737
435	1913
435	1992
435	2122
435	2165
435	2188
435	2256
435	2295
435	2371
435	2455
435	2526
435	2581
435	2840
435	2852
435	2953
435	2954
435	2987
435	3006
435	3544
435	3631
435	3682
435	3738
435	3748
435	3960
435	4068
435	4170
435	4239
435	4271
435	4345
435	4585
435	4654
435	4745
435	4755
436	497
436	512
436	852
436	961
436	1081
436	1128
436	1273
436	1699
436	1785
436	1975
436	2183
436	2311
436	2963
436	3083
436	3147
436	3180
436	3224
436	3341
436	3401
436	3429
436	3438
436	3602
436	3969
436	4214
436	4319
436	4876
436	4942
436	4986
437	626
437	883
437	993
437	1130
437	1236
437	1253
437	1284
437	1451
437	1640
437	1667
437	2212
437	2265
437	2480
437	2651
437	2819
437	3808
437	3911
437	4403
437	4431
437	4512
437	4513
437	4999
438	440
438	463
438	597
438	657
438	696
438	709
438	802
438	894
438	913
438	1104
438	1324
438	1520
438	1542
438	1554
438	1799
438	1988
438	1989
438	2076
438	2117
438	2224
438	2228
438	2269
438	2536
438	2623
438	2916
438	3466
438	3610
438	4279
438	4285
438	4291
438	4328
438	4374
438	4665
438	4933
439	495
439	566
439	670
439	741
439	1009
439	1140
439	1169
439	1239
439	1312
439	1328
439	1454
439	1615
439	2139
439	2275
439	2548
439	2715
439	2815
439	3220
439	3429
439	3858
439	4106
439	4133
439	4447
439	4917
439	4945
440	484
440	577
440	616
440	630
440	659
440	703
440	729
440	912
440	998
440	1044
440	1069
440	1079
440	1102
440	1172
440	1438
440	1466
440	1531
440	1543
440	1546
440	1587
440	1662
440	1689
440	1716
440	1821
440	1949
440	1970
440	2012
440	2037
440	2352
440	2354
440	2373
440	2419
440	2444
440	2453
440	2529
440	2652
440	2723
440	2762
440	2871
440	2949
440	3014
440	3215
440	3249
440	3251
440	3277
440	3308
440	3310
440	3315
440	3539
440	3744
440	3822
440	3907
440	4158
440	4305
440	4370
440	4497
440	4714
440	4750
441	532
441	612
441	666
441	667
441	677
441	678
441	768
441	781
441	811
441	861
441	867
441	935
441	1081
441	1123
441	1228
441	1256
441	1326
441	1340
441	1369
441	1472
441	1538
441	1606
441	2063
441	2278
441	2334
441	2358
441	2404
441	2421
441	2476
441	2587
441	2652
441	2995
441	3116
441	3204
441	3351
441	3472
441	3490
441	3621
441	3696
441	3733
441	4075
441	4168
441	4446
441	4757
442	605
442	712
442	877
442	1181
442	1225
442	1291
442	1337
442	1447
442	1449
442	1641
442	1669
442	1995
442	2158
442	2179
442	2251
442	2363
442	2514
442	2913
442	3006
442	3150
442	3243
442	3885
442	4494
442	4907
443	466
443	484
443	502
443	742
443	857
443	1239
443	1285
443	1294
443	1356
443	1389
443	1518
443	1526
443	1612
443	1664
443	1846
443	2044
443	2053
443	2062
443	2433
443	2707
443	3097
443	3252
443	3604
443	4011
443	4128
443	4135
443	4368
443	4605
443	4670
443	4777
444	452
444	523
444	584
444	615
444	673
444	736
444	805
444	825
444	943
444	960
444	1053
444	1082
444	1256
444	1331
444	1451
444	1586
444	1625
444	1841
444	1928
444	1943
444	2005
444	2085
444	2259
444	2401
444	2527
444	2571
444	2743
444	2839
444	2906
444	3275
444	3591
444	3679
444	3811
444	4016
444	4111
444	4217
444	4313
444	4465
444	4506
444	4521
444	4618
444	4700
444	4713
444	4731
444	4977
445	448
445	460
445	594
445	740
445	760
445	818
445	1152
445	1593
445	2185
445	2197
445	2257
445	2424
445	2882
445	3119
445	3174
445	3301
445	3379
445	3391
445	3440
445	3580
445	4012
445	4333
445	4389
445	4525
445	4667
445	4695
446	626
446	635
446	680
446	710
446	739
446	758
446	1095
446	1116
446	1160
446	1291
446	1772
446	1889
446	2137
446	2372
446	2469
446	3602
446	4251
446	4547
446	4600
446	4744
446	4809
447	450
447	488
447	496
447	639
447	775
447	986
447	1001
447	1050
447	1063
447	1074
447	1130
447	1314
447	1543
447	1547
447	1655
447	1815
447	1838
447	1881
447	1998
447	2047
447	2183
447	2194
447	2261
447	2473
447	2500
447	2998
447	3187
447	3292
447	3509
447	3534
447	3783
447	3890
447	4402
447	4671
448	456
448	507
448	514
448	526
448	577
448	790
448	835
448	869
448	1054
448	1116
448	1235
448	1313
448	1413
448	1467
448	1547
448	1654
448	1761
448	1946
448	1991
448	2025
448	2322
448	2603
448	2718
448	2722
448	2902
448	2930
448	3122
448	3355
448	3406
448	3546
448	3678
448	3974
448	4064
448	4346
448	4524
448	4540
448	4622
448	4633
448	4730
448	4738
449	689
449	696
449	781
449	883
449	886
449	930
449	937
449	991
449	993
449	996
449	1055
449	1201
449	1265
449	1404
449	1408
449	1468
449	1591
449	1708
449	1944
449	2267
449	2853
449	3411
449	3602
449	3672
449	4090
449	4383
449	4764
449	4869
450	464
450	465
450	510
450	573
450	595
450	596
450	620
450	646
450	852
450	1133
450	1146
450	1158
450	1182
450	1285
450	1295
450	1406
450	1409
450	1525
450	1534
450	1661
450	1763
450	1817
450	2189
450	2259
450	2371
450	2407
450	2447
450	2484
450	2565
450	2778
450	2830
450	2846
450	3044
450	3187
450	3212
450	3225
450	3263
450	3295
450	3460
450	3486
450	3500
450	4001
450	4092
450	4135
450	4169
450	4234
450	4247
450	4260
450	4295
450	4395
450	4439
450	4463
450	4501
450	4633
450	4729
450	4805
450	4834
450	4848
450	4855
450	4946
451	469
451	519
451	529
451	545
451	605
451	724
451	741
451	816
451	989
451	1017
451	1035
451	1099
451	1519
451	1552
451	1789
451	1790
451	1839
451	1935
451	1978
451	2058
451	2246
451	2317
451	2383
451	2461
451	2701
451	2836
451	2961
451	3122
451	3186
451	3203
451	3247
451	3327
451	3353
451	3440
451	3462
451	3553
451	3561
451	3590
451	3646
451	3755
451	3859
451	3924
451	4175
451	4261
451	4641
451	4656
451	4733
451	4740
451	4947
452	522
452	562
452	582
452	657
452	658
452	753
452	787
452	939
452	984
452	1004
452	1042
452	1102
452	1408
452	1554
452	1780
452	1822
452	2185
452	2317
452	2573
452	2635
452	3107
452	3157
452	3562
452	4108
452	4213
452	4316
452	4459
452	4464
453	478
453	535
453	614
453	628
453	646
453	702
453	790
453	791
453	968
453	995
453	1068
453	1080
453	1129
453	1137
453	1281
453	1325
453	1459
453	1836
453	1881
453	2155
453	2528
453	2661
453	2821
453	3225
453	3648
453	4054
453	4057
453	4264
453	4378
453	4426
453	4521
453	4607
453	4647
453	4792
453	4848
454	501
454	596
454	621
454	729
454	761
454	824
454	836
454	1171
454	1245
454	1571
454	1709
454	1981
454	2033
454	2040
454	2895
454	3109
454	3198
454	3581
454	3601
454	3713
454	4043
454	4594
454	4778
454	4838
454	4989
455	489
455	496
455	515
455	653
455	666
455	1083
455	1086
455	1255
455	1386
455	1564
455	1960
455	1987
455	2135
455	2169
455	2952
455	3137
455	3183
455	3550
455	3862
455	4253
455	4383
455	4675
456	467
456	520
456	562
456	563
456	616
456	692
456	769
456	838
456	862
456	994
456	1008
456	1028
456	1115
456	1137
456	1224
456	1255
456	1365
456	1470
456	1487
456	1532
456	1707
456	1862
456	2215
456	2711
456	2786
456	2880
456	3329
456	3345
456	3422
456	3606
456	3770
456	3953
456	4147
456	4254
456	4423
456	4766
457	719
457	733
457	1189
457	1340
457	1418
457	1758
457	2061
457	2779
457	4022
457	4983
458	480
458	484
458	581
458	796
458	867
458	942
458	1024
458	1219
458	1321
458	1381
458	1524
458	1554
458	1662
458	1697
458	1816
458	1961
458	2055
458	2124
458	2321
458	2402
458	2475
458	2498
458	2749
458	2809
458	3003
458	3195
458	3395
458	3445
458	3458
458	3581
458	3675
458	3721
458	3751
458	3884
458	4243
458	4268
458	4540
458	4665
458	4778
458	4814
459	550
459	576
459	630
459	632
459	745
459	781
459	958
459	1007
459	1045
459	1133
459	1509
459	1666
459	1782
459	1876
459	2182
459	2187
459	2232
459	2310
459	2354
459	2359
459	2543
459	2736
459	2838
459	3246
459	3332
459	3349
459	3463
459	3531
459	3634
459	3640
459	3677
459	3905
459	4344
459	4381
459	4742
459	4802
459	4864
459	4903
460	874
460	903
460	1261
460	1372
460	1376
460	1427
460	1583
460	1636
460	1649
460	1866
460	1898
460	2082
460	2154
460	2249
460	2271
460	2551
460	2605
460	2606
460	2635
460	2637
460	2974
460	3022
460	3412
460	3532
460	3578
460	3693
460	3698
460	3878
460	4146
460	4346
460	4615
460	4638
460	4713
460	4920
461	484
461	492
461	541
461	655
461	660
461	692
461	695
461	698
461	787
461	876
461	914
461	931
461	1054
461	1182
461	1213
461	1273
461	1287
461	1338
461	1408
461	1430
461	1593
461	1654
461	2163
461	2188
461	2265
461	2449
461	2655
461	2674
461	3117
461	3392
461	3485
461	3512
461	3665
461	3726
461	3825
461	3888
461	4335
461	4402
461	4441
461	4478
461	4601
462	471
462	477
462	555
462	674
462	818
462	908
462	933
462	1134
462	1217
462	1286
462	1292
462	1341
462	1344
462	1417
462	1567
462	1745
462	1968
462	1977
462	2289
462	2343
462	2405
462	2417
462	2735
462	2747
462	2781
462	2885
462	2920
462	3035
462	3169
462	3243
462	3279
462	3709
462	3748
462	3770
462	4021
462	4100
462	4169
462	4617
462	4865
463	470
463	510
463	669
463	738
463	888
463	1063
463	1222
463	1233
463	1260
463	1805
463	2013
463	2032
463	2078
463	2102
463	2341
463	2694
463	3279
463	3649
463	3946
463	4318
463	4593
463	4728
463	4884
464	546
464	568
464	696
464	698
464	946
464	1020
464	1069
464	1130
464	1145
464	1192
464	1204
464	1246
464	1453
464	1466
464	1492
464	1574
464	1656
464	1864
464	2066
464	2129
464	2255
464	2325
464	2376
464	2508
464	2540
464	2629
464	2656
464	2684
464	2831
464	2844
464	3092
464	3125
464	3188
464	3194
464	3346
464	3426
464	3587
464	3603
464	3606
464	3682
464	3711
464	3898
464	3960
464	4253
464	4466
464	4516
464	4598
464	4647
464	4763
464	4977
465	519
465	630
465	823
465	1028
465	1184
465	1223
465	1277
465	1361
465	1452
465	1510
465	1575
465	1641
465	1794
465	1809
465	1868
465	2316
465	2409
465	2459
465	2597
465	2617
465	2645
465	2673
465	2751
465	2758
465	3147
465	3296
465	3649
465	3788
465	3801
465	3868
465	3888
465	3932
465	4048
465	4157
465	4312
465	4403
465	4633
465	4901
465	4944
466	545
466	614
466	811
466	936
466	970
466	1021
466	1059
466	1110
466	1133
466	1232
466	1278
466	1541
466	1628
466	1786
466	1920
466	2189
466	2240
466	2273
466	2488
466	2521
466	2604
466	2616
466	2728
466	2844
466	2846
466	3044
466	3058
466	3310
466	3331
466	3392
466	4432
466	4570
466	4795
466	4828
467	572
467	584
467	804
467	924
467	1007
467	1178
467	1391
467	1403
467	1438
467	1797
467	1963
467	2034
467	2167
467	2455
467	2618
467	2847
467	2971
467	3036
467	3412
467	3414
467	3489
467	3540
467	3549
467	3810
467	3885
467	4094
467	4164
467	4249
467	4510
467	4788
468	764
468	939
468	1013
468	1679
468	1749
468	2068
468	2222
468	2356
468	3090
468	3153
468	3277
468	3594
468	3605
468	3625
468	3683
468	4190
468	4209
469	538
469	593
469	601
469	774
469	854
469	880
469	953
469	969
469	1017
469	1121
469	1144
469	1449
469	1537
469	1697
469	1715
469	1725
469	1747
469	1787
469	1812
469	1938
469	2085
469	2115
469	2235
469	2244
469	2488
469	2506
469	2556
469	2635
469	2928
469	3152
469	3182
469	3552
469	3725
469	3735
469	3773
469	3782
469	3855
469	3910
469	3997
469	4036
469	4248
469	4568
469	4720
469	4804
470	488
470	522
470	538
470	539
470	557
470	606
470	847
470	881
470	1000
470	1009
470	1025
470	1053
470	1205
470	1315
470	1535
470	1692
470	1702
470	1800
470	1804
470	1954
470	2168
470	2208
470	2346
470	2521
470	2571
470	2598
470	2946
470	3024
470	3034
470	3298
470	3383
470	3426
470	3546
470	3871
470	3879
470	3881
470	4144
470	4191
470	4388
470	4442
470	4507
470	4512
470	4640
470	4759
470	4767
471	493
471	586
471	730
471	746
471	751
471	906
471	927
471	950
471	1015
471	1019
471	1186
471	1211
471	1243
471	1288
471	1291
471	1374
471	1541
471	1685
471	1825
471	1918
471	1946
471	2068
471	2078
471	2191
471	2458
471	3125
471	3326
471	3782
471	4143
471	4187
471	4924
472	615
472	665
472	752
472	794
472	1082
472	1105
472	1154
472	1169
472	1170
472	1461
472	1750
472	1837
472	2101
472	2757
472	2817
472	3167
472	3333
472	3354
472	3416
472	3492
472	3506
472	3678
472	3847
472	4002
472	4009
472	4029
472	4047
472	4217
472	4218
472	4234
472	4529
473	642
473	797
473	812
473	871
473	874
473	1078
473	1085
473	1388
473	1462
473	1581
473	1668
473	1676
473	1789
473	1793
473	1909
473	2012
473	2045
473	2149
473	2302
473	2310
473	2441
473	2461
473	2730
473	2747
473	3593
473	3703
473	3964
473	3983
473	4011
473	4162
473	4175
473	4289
473	4291
473	4360
473	4495
474	523
474	582
474	648
474	740
474	741
474	772
474	856
474	900
474	910
474	983
474	1009
474	1138
474	1141
474	1250
474	1390
474	1541
474	1578
474	1636
474	1687
474	2268
474	2389
474	2391
474	2806
474	2876
474	2881
474	2996
474	3027
474	3072
474	3368
474	3386
474	3393
474	3418
474	3482
474	3526
474	3681
474	3753
474	3874
474	4039
474	4397
474	4405
474	4517
474	4882
474	4934
475	484
475	500
475	575
475	604
475	606
475	613
475	624
475	679
475	712
475	724
475	770
475	814
475	822
475	962
475	993
475	1010
475	1091
475	1274
475	1323
475	1359
475	1415
475	1467
475	1836
475	1857
475	1868
475	1933
475	2180
475	2303
475	2363
475	2672
475	2822
475	2849
475	2909
475	3124
475	3213
475	3235
475	3349
475	3371
475	3615
475	3839
475	4302
475	4308
475	4349
475	4401
475	4769
475	4791
475	4925
475	4940
476	525
476	542
476	553
476	577
476	597
476	618
476	689
476	695
476	735
476	792
476	836
476	852
476	869
476	973
476	1004
476	1173
476	1266
476	1480
476	1513
476	1518
476	1647
476	1693
476	1780
476	1857
476	1940
476	2046
476	2297
476	2392
476	2420
476	2524
476	2603
476	2638
476	2875
476	3116
476	3197
476	3220
476	3518
476	3649
476	3859
476	4166
476	4210
476	4268
476	4316
476	4371
476	4449
476	4579
476	4703
477	495
477	578
477	633
477	643
477	709
477	769
477	775
477	776
477	817
477	878
477	894
477	1032
477	1293
477	1432
477	1773
477	1777
477	1840
477	2035
477	2195
477	2207
477	2355
477	2662
477	2971
477	3154
477	3380
477	3498
477	3654
477	3930
477	4171
477	4324
477	4473
477	4734
477	4747
477	4795
478	532
478	562
478	658
478	772
478	989
478	1051
478	1102
478	1265
478	1270
478	1347
478	1683
478	1715
478	1809
478	1852
478	2107
478	2225
478	2375
478	2397
478	2471
478	2541
478	2822
478	2918
478	3066
478	3467
478	3539
478	3582
478	3676
478	3801
478	3920
478	3958
478	4038
478	4454
478	4478
478	4644
479	556
479	620
479	666
479	725
479	948
479	959
479	992
479	999
479	1053
479	1181
479	1218
479	1322
479	1451
479	1646
479	1665
479	1855
479	1858
479	1953
479	2306
479	2446
479	2461
479	2749
479	2969
479	3322
479	3514
479	3570
479	3840
479	4079
479	4163
479	4603
479	4615
479	4628
479	4670
480	688
480	745
480	760
480	822
480	902
480	921
480	1096
480	1398
480	1487
480	1549
480	1769
480	2107
480	2263
480	2281
480	2397
480	2444
480	2465
480	2696
480	2756
480	2845
480	2919
480	2936
480	3051
480	3142
480	3180
480	3241
480	3348
480	3612
480	3887
480	4342
480	4607
480	4967
481	507
481	572
481	641
481	690
481	715
481	764
481	768
481	876
481	893
481	1055
481	1063
481	1069
481	1140
481	1206
481	1317
481	1333
481	1517
481	2003
481	2056
481	2196
481	2237
481	2408
481	2482
481	2668
481	2712
481	2823
481	3195
481	3535
481	4196
481	4262
481	4322
481	4587
481	4815
481	4890
482	550
482	560
482	568
482	647
482	739
482	800
482	1207
482	1245
482	1294
482	1380
482	1393
482	1417
482	1696
482	2032
482	2105
482	2109
482	2126
482	2175
482	2248
482	2348
482	2449
482	2595
482	2691
482	3017
482	3326
482	3495
482	3716
482	3808
482	3859
482	4403
482	4590
482	4911
483	512
483	743
483	806
483	817
483	826
483	1010
483	1132
483	1287
483	1365
483	1396
483	1479
483	1496
483	1499
483	1628
483	1714
483	2030
483	2035
483	2058
483	2069
483	2563
483	2587
483	2759
483	2853
483	3116
483	3265
483	3293
483	3348
483	3463
483	3562
483	3663
483	3706
483	3857
483	4046
483	4120
483	4334
483	4444
483	4785
484	513
484	590
484	792
484	805
484	881
484	1061
484	1160
484	1379
484	1449
484	1486
484	1526
484	1702
484	1706
484	1883
484	1974
484	2389
484	2892
484	3037
484	3201
484	3471
484	3602
484	3822
484	4082
484	4478
484	4792
485	508
485	697
485	699
485	737
485	748
485	784
485	793
485	835
485	892
485	1002
485	1067
485	1187
485	1216
485	1233
485	1294
485	1314
485	1319
485	1590
485	1592
485	1617
485	1652
485	1861
485	1863
485	1983
485	2095
485	2150
485	2178
485	2214
485	2442
485	2456
485	2520
485	2547
485	2557
485	2584
485	2589
485	2672
485	2772
485	2853
485	2868
485	2996
485	3141
485	3335
485	3341
485	3353
485	3538
485	3644
485	4024
485	4061
485	4123
485	4125
485	4251
485	4258
485	4382
485	4468
485	4671
485	4714
485	4837
485	4866
486	605
486	635
486	644
486	645
486	672
486	707
486	798
486	852
486	982
486	1032
486	1048
486	1049
486	1112
486	1118
486	1330
486	1515
486	1722
486	1799
486	1843
486	1983
486	2222
486	2683
486	2701
486	2764
486	2962
486	3011
486	3025
486	3055
486	3086
486	3330
486	3613
486	3777
486	3933
486	4134
486	4266
486	4914
487	572
487	589
487	1167
487	1183
487	1204
487	1289
487	1528
487	1783
487	1934
487	1972
487	2051
487	2097
487	2369
487	2974
487	3076
487	3214
487	4399
487	4836
487	4903
487	4955
488	536
488	573
488	601
488	655
488	716
488	718
488	726
488	759
488	837
488	862
488	977
488	1098
488	1108
488	1145
488	1183
488	1298
488	1314
488	1358
488	1380
488	1458
488	1473
488	1566
488	1595
488	1621
488	1839
488	2161
488	2319
488	2335
488	2374
488	2573
488	2613
488	2620
488	2625
488	2798
488	2898
488	3265
488	3278
488	3629
488	3678
488	3763
488	3791
488	3973
488	4191
488	4678
489	1379
489	2197
489	2887
489	3731
489	3819
489	4918
490	513
490	517
490	574
490	590
490	603
490	636
490	826
490	914
490	950
490	962
490	992
490	1004
490	1350
490	1503
490	1539
490	1620
490	1621
490	1663
490	1725
490	1788
490	1827
490	1854
490	1898
490	1958
490	2110
490	2236
490	2467
490	2649
490	3281
490	3443
490	3505
490	3538
490	3599
490	3718
490	3754
490	3801
490	4068
490	4108
490	4243
490	4279
490	4449
490	4686
490	4821
491	508
491	591
491	693
491	884
491	987
491	1161
491	1276
491	1324
491	1343
491	1474
491	1512
491	1521
491	1523
491	1543
491	1655
491	1669
491	1881
491	1961
491	2048
491	2344
491	2512
491	2893
491	2913
491	3061
491	3462
491	3471
491	3712
491	3782
491	3943
491	4001
491	4144
491	4462
491	4692
491	4970
492	521
492	598
492	599
492	801
492	806
492	807
492	873
492	894
492	949
492	961
492	1004
492	1064
492	1146
492	1237
492	1265
492	1322
492	1654
492	1744
492	1896
492	2030
492	2036
492	2226
492	2364
492	2370
492	2396
492	2433
492	2589
492	2798
492	2894
492	3110
492	3136
492	3294
492	3498
492	3521
492	3553
492	3588
492	3742
492	3885
492	4099
492	4494
492	4508
492	4631
492	4651
492	4685
493	607
493	644
493	1026
493	1058
493	1060
493	1193
493	1225
493	1240
493	1370
493	1731
493	1740
493	1827
493	1845
493	2076
493	2373
493	2810
493	3321
493	3497
493	4036
493	4149
493	4587
493	4632
493	4641
493	4654
493	4827
494	542
494	612
494	739
494	830
494	862
494	982
494	1098
494	1401
494	1479
494	1607
494	1705
494	1835
494	2095
494	2137
494	2185
494	2355
494	2363
494	2509
494	2543
494	2727
494	2735
494	3079
494	3614
494	3768
494	4574
494	4718
495	591
495	621
495	829
495	890
495	900
495	1027
495	1047
495	1056
495	1232
495	1422
495	1539
495	1578
495	1842
495	2006
495	2044
495	2144
495	2221
495	2429
495	2690
495	2999
495	3368
495	3904
495	4328
495	4370
495	4521
495	4524
495	4566
496	787
496	907
496	1218
496	1281
496	1298
496	1337
496	1531
496	1572
496	2172
496	2343
496	2413
496	2511
496	2638
496	2701
496	2761
496	2786
496	3207
496	3315
496	3668
496	4348
496	4430
496	4658
496	4700
496	4843
496	4883
497	520
497	616
497	645
497	677
497	714
497	758
497	786
497	791
497	855
497	932
497	963
497	1043
497	1219
497	1427
497	1436
497	1669
497	1679
497	2113
497	2265
497	2333
497	2468
497	2506
497	2856
497	2863
497	2937
497	3102
497	3197
497	3204
497	3630
497	3874
497	3999
497	4406
497	4811
497	4916
498	626
498	1110
498	1500
498	1577
498	1644
498	2411
498	3127
498	3510
498	3567
498	4149
498	4501
498	4584
499	515
499	535
499	678
499	685
499	774
499	861
499	891
499	897
499	902
499	1023
499	1074
499	1258
499	1313
499	1400
499	1427
499	1647
499	1808
499	1873
499	1966
499	2131
499	2132
499	2450
499	2469
499	2604
499	2753
499	2795
499	2875
499	2898
499	3458
499	3498
499	3533
499	3674
499	3915
499	4043
499	4192
499	4263
499	4355
499	4484
499	4777
499	4862
500	549
500	638
500	648
500	659
500	722
500	921
500	931
500	1030
500	1361
500	1553
500	1577
500	1643
500	1662
500	1698
500	1738
500	1794
500	1801
500	1886
500	1924
500	1972
500	2243
500	2324
500	2520
500	2794
500	2876
500	3259
500	3329
500	3486
500	3495
500	3559
500	3576
500	3796
500	3917
500	4164
500	4377
500	4412
500	4413
500	4533
501	504
501	597
501	671
501	750
501	1062
501	1257
501	1574
501	1586
501	1654
501	1884
501	1994
501	2049
501	2592
501	2730
501	2832
501	2890
501	2908
501	3623
501	4058
501	4094
501	4230
501	4368
501	4525
501	4696
502	513
502	540
502	645
502	672
502	722
502	768
502	1000
502	1039
502	1095
502	1104
502	1109
502	1171
502	1447
502	1503
502	1990
502	2015
502	2077
502	2130
502	2217
502	2240
502	2342
502	2468
502	3069
502	3209
502	3310
502	3417
502	3485
502	3642
502	3824
502	4019
502	4068
502	4072
502	4282
502	4499
503	560
503	783
503	933
503	1143
503	1243
503	1249
503	1335
503	1413
503	1630
503	1702
503	1955
503	2068
503	2139
503	2495
503	2729
503	2786
503	2881
503	2964
503	3235
503	3263
503	3425
503	4011
503	4129
503	4207
503	4315
503	4624
503	4785
504	535
504	547
504	597
504	606
504	689
504	751
504	870
504	1362
504	1424
504	1452
504	1522
504	1530
504	1989
504	2092
504	2335
504	2426
504	2628
504	2629
504	2649
504	2657
504	2737
504	2807
504	2944
504	3164
504	3181
504	3363
504	3442
504	3549
504	3607
504	3697
504	3877
504	4952
505	509
505	524
505	604
505	625
505	797
505	818
505	847
505	872
505	923
505	1017
505	1100
505	1109
505	1209
505	1219
505	1229
505	1378
505	1425
505	1527
505	1716
505	1737
505	1869
505	1888
505	2081
505	2084
505	2087
505	2184
505	2446
505	2478
505	2551
505	2677
505	2761
505	2835
505	3025
505	3218
505	3269
505	3391
505	3560
505	3707
505	3762
505	3826
505	3957
505	4324
505	4637
506	530
506	565
506	788
506	815
506	908
506	996
506	1030
506	1058
506	1258
506	1424
506	1504
506	1550
506	1716
506	1809
506	1873
506	1939
506	2354
506	2599
506	3018
506	3085
506	3131
506	3494
506	3604
506	4691
507	587
507	660
507	674
507	1067
507	1178
507	1291
507	1512
507	1550
507	1603
507	1630
507	1713
507	1905
507	1911
507	2200
507	2604
507	2632
507	2778
507	2789
507	3038
507	3640
507	3645
507	4172
507	4191
507	4238
507	4353
507	4448
507	4513
507	4845
507	4937
507	4974
508	658
508	702
508	943
508	1094
508	1456
508	1539
508	1795
508	1811
508	1820
508	1957
508	2011
508	2283
508	2482
508	2544
508	2639
508	2784
508	2789
508	2810
508	3190
508	3951
508	4362
508	4375
508	4438
508	4645
508	4805
508	4939
508	4994
509	595
509	619
509	823
509	1434
509	1461
509	1578
509	1666
509	1731
509	1829
509	1978
509	2094
509	2305
509	3000
509	3090
509	3290
509	3455
509	3479
509	3881
509	4104
509	4171
509	4212
509	4483
509	4947
510	585
510	594
510	641
510	647
510	808
510	832
510	850
510	890
510	911
510	921
510	1068
510	1144
510	1485
510	1549
510	1840
510	1855
510	1866
510	1898
510	2056
510	2069
510	2149
510	2155
510	2247
510	2487
510	2611
510	2833
510	2868
510	2884
510	2906
510	3021
510	3535
510	3994
510	4199
510	4304
510	4410
510	4623
510	4632
510	4835
511	515
511	563
511	601
511	669
511	785
511	791
511	802
511	825
511	995
511	998
511	1042
511	1161
511	1178
511	1292
511	1394
511	1483
511	1599
511	1648
511	1686
511	1701
511	1737
511	1809
511	1997
511	2131
511	2285
511	2417
511	2556
511	2622
511	2638
511	2640
511	2656
511	2721
511	2783
511	2816
511	2839
511	2853
511	2897
511	2997
511	2999
511	3093
511	3168
511	3242
511	3263
511	3278
511	3358
511	3483
511	3596
511	3761
511	3825
511	4080
511	4233
511	4272
511	4498
511	4866
511	4930
512	710
512	908
512	1120
512	1166
512	1212
512	1243
512	1304
512	1428
512	1489
512	1490
512	1630
512	1669
512	1856
512	1957
512	2038
512	2069
512	2218
512	2252
512	2434
512	3090
512	3204
512	3400
512	3770
512	3799
512	3821
512	4946
513	982
513	1134
513	1399
513	1590
513	1784
513	1839
513	1986
513	2141
513	2220
513	2227
513	2260
513	2859
513	3183
513	3317
513	3781
513	4184
513	4416
513	4443
514	537
514	592
514	606
514	622
514	714
514	829
514	1070
514	1097
514	1103
514	1159
514	1202
514	1396
514	1448
514	1643
514	1923
514	2000
514	2043
514	2053
514	2059
514	2599
514	2981
514	3055
514	3063
514	3212
514	3367
514	3902
514	4278
514	4321
514	4603
514	4744
515	796
515	866
515	954
515	1003
515	1029
515	1171
515	1258
515	1289
515	1293
515	1405
515	1423
515	1558
515	1559
515	1718
515	2152
515	2211
515	2250
515	2434
515	2583
515	2586
515	2835
515	2899
515	3318
515	3446
515	3736
515	4089
515	4117
515	4431
515	4512
515	4650
515	4724
516	759
516	867
516	1022
516	1037
516	1295
516	1371
516	1452
516	1475
516	1593
516	1822
516	1995
516	2261
516	2288
516	2401
516	2493
516	2907
516	3076
516	3272
516	3288
516	3802
516	3881
516	4009
516	4859
516	4905
517	528
517	546
517	556
517	594
517	602
517	633
517	671
517	707
517	719
517	737
517	772
517	812
517	857
517	973
517	999
517	1122
517	1176
517	1205
517	1242
517	1259
517	1484
517	1948
517	2182
517	2387
517	2455
517	2478
517	2666
517	2671
517	3588
517	3611
517	3778
517	3884
517	4498
517	4569
518	530
518	664
518	675
518	854
518	856
518	948
518	1022
518	1023
518	1218
518	1498
518	1512
518	1583
518	1586
518	1813
518	1928
518	2050
518	2150
518	2156
518	2179
518	2385
518	2782
518	2810
518	2998
518	3113
518	3286
518	3379
518	3386
518	3494
518	3518
518	3686
518	3759
518	3776
518	3917
518	4040
518	4421
518	4788
519	525
519	556
519	674
519	675
519	701
519	789
519	1010
519	1024
519	1090
519	1174
519	1257
519	1309
519	1510
519	1776
519	1797
519	2018
519	2080
519	2522
519	2555
519	2847
519	3056
519	3100
519	3153
519	3367
519	3369
519	3398
519	3456
519	3502
519	3706
519	4165
519	4756
519	4869
519	4939
520	600
520	736
520	782
520	857
520	952
520	972
520	1075
520	1189
520	1270
520	1277
520	1472
520	1590
520	1825
520	1835
520	1987
520	2095
520	2121
520	2124
520	2177
520	2501
520	2659
520	2704
520	3206
520	3239
520	3327
520	3471
520	3498
520	3666
520	3770
520	3900
520	4007
520	4037
520	4155
520	4505
520	4536
520	4579
520	4815
520	4871
521	528
521	575
521	803
521	864
521	1017
521	1018
521	1484
521	1588
521	1678
521	1689
521	1746
521	1871
521	2029
521	2074
521	2206
521	2378
521	2453
521	2587
521	2620
521	2664
521	2900
521	3090
521	3158
521	3380
521	3775
521	4008
521	4041
521	4161
521	4178
521	4893
521	4997
522	600
522	631
522	634
522	790
522	917
522	930
522	993
522	998
522	1571
522	1744
522	1773
522	1968
522	2484
522	2812
522	3953
522	4180
522	4318
522	4366
522	4378
522	4468
522	4606
522	4611
522	4654
522	4741
522	4797
522	4847
522	4879
522	4946
523	789
523	948
523	1067
523	1742
523	2397
523	2587
523	3290
523	3504
523	3696
523	3706
523	3723
523	3771
523	4550
523	4599
523	4827
524	536
524	602
524	641
524	651
524	666
524	705
524	855
524	909
524	981
524	1169
524	1414
524	1619
524	1866
524	1987
524	1996
524	2053
524	2057
524	2078
524	2172
524	2545
524	2808
524	3025
524	3307
524	3431
524	3654
524	3892
524	4013
524	4145
524	4184
524	4456
524	4821
525	532
525	650
525	660
525	979
525	1012
525	1325
525	1346
525	1353
525	1473
525	1475
525	1495
525	1525
525	1592
525	1776
525	1789
525	1853
525	2063
525	2238
525	2867
525	2951
525	3064
525	3196
525	3317
525	3396
525	3533
525	3561
525	4273
525	4449
525	4686
525	4801
526	607
526	664
526	731
526	777
526	790
526	855
526	954
526	1062
526	1066
526	1209
526	1290
526	1433
526	1753
526	1779
526	2112
526	2156
526	2306
526	2344
526	2381
526	2412
526	3051
526	3059
526	3772
526	3943
526	4027
526	4325
526	4568
526	4991
527	560
527	607
527	649
527	691
527	767
527	803
527	971
527	1087
527	1115
527	1119
527	1187
527	1189
527	1308
527	1541
527	1549
527	1575
527	1942
527	2034
527	2131
527	2389
527	2489
527	2575
527	2723
527	2743
527	2756
527	3329
527	3510
527	3538
527	3541
527	3651
527	3761
527	3909
527	4097
527	4176
527	4256
527	4602
527	4882
528	591
528	774
528	953
528	1025
528	1032
528	1047
528	1081
528	1084
528	1101
528	1167
528	1245
528	1250
528	1351
528	1354
528	1386
528	1417
528	1465
528	1728
528	1763
528	1800
528	1950
528	2134
528	2359
528	2615
528	2696
528	2803
528	3290
528	4142
528	4270
528	4330
528	4589
528	4693
528	4993
529	581
529	604
529	941
529	1079
529	1245
529	1602
529	2006
529	2341
529	2379
529	2550
529	2674
529	2925
529	3010
529	3473
529	3717
529	4749
529	4750
530	608
530	663
530	747
530	907
530	952
530	982
530	988
530	1022
530	1052
530	1118
530	1364
530	1434
530	1476
530	1760
530	1791
530	1856
530	2021
530	2149
530	2284
530	2332
530	3660
530	3764
530	4209
530	4324
530	4451
530	4982
531	701
531	786
531	852
531	1006
531	1344
531	1381
531	1646
531	1708
531	1745
531	1932
531	2012
531	2605
531	3031
531	3526
531	3650
531	3785
531	3929
531	4241
531	4618
531	4696
532	604
532	715
532	744
532	750
532	771
532	842
532	917
532	953
532	1156
532	1157
532	1170
532	1645
532	1692
532	1893
532	2206
532	2244
532	2484
532	2538
532	2547
532	2709
532	2718
532	2934
532	3204
532	3256
532	3276
532	3905
532	4122
532	4260
532	4543
532	4545
532	4737
532	4829
532	4839
533	579
533	667
533	670
533	813
533	982
533	1183
533	1324
533	1356
533	1762
533	1868
533	2109
533	2250
533	2898
533	3183
533	3886
533	4097
533	4244
533	4284
533	4300
533	4494
533	4565
533	4576
533	4984
534	563
534	567
534	627
534	650
534	758
534	996
534	1043
534	1086
534	1274
534	1342
534	1476
534	1591
534	2152
534	2318
534	2426
534	2450
534	2484
534	2498
534	3059
534	3227
534	3849
534	3884
534	4185
534	4872
534	4928
534	4968
535	729
535	773
535	782
535	840
535	944
535	967
535	1006
535	1034
535	1103
535	1126
535	1138
535	1367
535	1461
535	1651
535	1652
535	1760
535	1956
535	2082
535	2101
535	2408
535	2625
535	3032
535	3038
535	3207
535	3350
535	3458
535	3549
535	3671
535	3848
535	3939
535	3998
535	4135
535	4383
535	4505
535	4552
535	4569
535	4676
535	4682
535	4965
536	543
536	599
536	694
536	699
536	882
536	1001
536	1088
536	1154
536	1220
536	1312
536	1325
536	1516
536	1756
536	1790
536	1912
536	1965
536	2066
536	2108
536	2161
536	2630
536	2919
536	3081
536	3216
536	3558
536	3621
536	3798
536	4350
536	4684
536	4904
537	583
537	768
537	881
537	886
537	965
537	1178
537	1251
537	1686
537	1726
537	2152
537	2234
537	2324
537	2890
537	2906
537	3432
537	3625
537	3629
537	4104
537	4250
537	4495
537	4529
537	4969
538	718
538	733
538	741
538	1056
538	1568
538	1663
538	1757
538	2368
538	2887
538	3161
538	3185
538	4070
538	4929
538	4988
539	763
539	863
539	898
539	1155
539	1319
539	1324
539	1510
539	1530
539	1702
539	1772
539	1880
539	2127
539	2149
539	2445
539	2703
539	2808
539	3687
539	3765
539	3897
539	3918
539	4348
539	4997
540	603
540	625
540	648
540	663
540	689
540	769
540	770
540	858
540	1161
540	1218
540	1250
540	1334
540	1573
540	1760
540	2023
540	2137
540	2149
540	2208
540	2341
540	2430
540	2437
540	2476
540	2487
540	2895
540	2900
540	2958
540	2980
540	3006
540	3063
540	3194
540	3468
540	3530
540	3696
540	3840
540	4058
540	4097
540	4237
540	4256
540	4366
540	4605
540	4746
540	4902
541	555
541	634
541	683
541	705
541	714
541	817
541	883
541	1017
541	1035
541	1283
541	1285
541	1288
541	1314
541	1378
541	1382
541	1420
541	1681
541	1793
541	2053
541	2248
541	2275
541	2971
541	3702
541	3726
541	3762
541	3967
541	4245
541	4263
541	4452
541	4680
541	4681
541	4779
541	4869
541	4902
542	657
542	735
542	800
542	942
542	948
542	1046
542	1296
542	1444
542	1503
542	1710
542	1770
542	1801
542	2620
542	2664
542	3099
542	3218
542	3401
542	3837
542	4213
542	4351
542	4558
542	4876
543	632
543	718
543	813
543	909
543	928
543	1036
543	1130
543	1219
543	1227
543	1324
543	1488
543	1685
543	1715
543	2077
543	2115
543	2167
543	2195
543	2234
543	2281
543	2623
543	2694
543	2704
543	2766
543	2835
543	3230
543	3304
543	3337
543	3372
543	3574
543	3732
543	3911
543	4414
543	4631
543	4774
543	4921
544	549
544	592
544	604
544	637
544	700
544	860
544	928
544	937
544	1216
544	1244
544	1442
544	1578
544	1640
544	1971
544	2019
544	2073
544	2128
544	2146
544	2335
544	2426
544	2429
544	2803
544	2881
544	2895
544	2912
544	2990
544	3043
544	3358
544	3694
544	3737
544	4227
544	4439
544	4599
544	4618
544	4634
544	4714
544	4840
545	576
545	605
545	623
545	701
545	743
545	995
545	1157
545	1176
545	1271
545	1347
545	1385
545	1452
545	1480
545	1508
545	1557
545	1659
545	1677
545	1742
545	1846
545	1856
545	1887
545	1951
545	1966
545	2070
545	2183
545	2256
545	2278
545	2453
545	2471
545	2531
545	2670
545	2707
545	2856
545	2921
545	2939
545	3000
545	3001
545	3020
545	3119
545	3141
545	3170
545	3247
545	3389
545	3456
545	3506
545	3523
545	3603
545	3677
545	3726
545	4012
545	4100
545	4343
545	4675
545	4692
545	4705
545	4796
545	4807
545	4984
546	556
546	598
546	602
546	849
546	859
546	919
546	1057
546	1579
546	1682
546	1709
546	1889
546	1959
546	1992
546	2152
546	2162
546	2616
546	2772
546	2915
546	3624
546	3800
546	4494
546	4552
546	4606
547	606
547	817
547	831
547	1047
547	1331
547	1465
547	1692
547	1929
547	2056
547	2551
547	2863
547	2933
547	3064
547	3206
547	3974
547	4069
548	624
548	668
548	693
548	716
548	719
548	947
548	976
548	1283
548	1316
548	1507
548	1572
548	1582
548	1613
548	1626
548	1667
548	1731
548	1857
548	1951
548	1998
548	2062
548	2169
548	2382
548	2464
548	2499
548	2633
548	2816
548	2900
548	2923
548	2994
548	3113
548	3717
548	3789
548	3875
548	4010
548	4752
549	597
549	621
549	692
549	728
549	999
549	1004
549	1285
549	1376
549	1434
549	1713
549	1809
549	2001
549	2085
549	2166
549	2399
549	2673
549	2892
549	3092
549	3124
549	3487
549	3650
549	3682
549	3956
549	4046
549	4609
549	4761
549	4910
550	557
550	566
550	578
550	722
550	759
550	843
550	927
550	966
550	1117
550	1242
550	1487
550	1489
550	1685
550	1833
550	1871
550	1946
550	1988
550	2047
550	2100
550	2269
550	2355
550	2361
550	2473
550	2661
550	2935
550	2949
550	3096
550	3266
550	3453
550	3697
550	4066
550	4079
550	4095
550	4651
551	566
551	591
551	628
551	692
551	748
551	1019
551	1029
551	1047
551	1077
551	1140
551	1148
551	1214
551	1229
551	1230
551	1260
551	1271
551	1302
551	1318
551	1431
551	1627
551	1677
551	1812
551	1832
551	1835
551	1857
551	2166
551	2539
551	2851
551	2940
551	2987
551	3033
551	3139
551	3227
551	3229
551	3279
551	3328
551	3339
551	3491
551	3805
551	4232
551	4257
551	4438
551	4632
551	4711
551	4904
551	4951
552	558
552	560
552	562
552	565
552	608
552	1128
552	1134
552	1169
552	1219
552	1308
552	1402
552	1548
552	1573
552	1684
552	1687
552	1722
552	1886
552	2124
552	2141
552	2163
552	2223
552	2355
552	2370
552	2434
552	2528
552	2759
552	2812
552	2815
552	3015
552	3051
552	3190
552	3255
552	3535
552	3610
552	3678
552	4003
552	4411
552	4635
552	4642
552	4673
552	4789
552	4936
553	825
553	917
553	922
553	946
553	1002
553	1171
553	1287
553	1303
553	1306
553	1353
553	1359
553	1365
553	1584
553	1710
553	1987
553	2077
553	2142
553	2310
553	2312
553	2316
553	2900
553	3066
553	3188
553	3250
553	3257
553	3369
553	3405
553	3420
553	3551
553	3556
553	3798
553	3948
553	4042
553	4222
553	4373
554	585
554	586
554	640
554	769
554	811
554	822
554	911
554	1208
554	1214
554	1382
554	1383
554	1724
554	1739
554	1757
554	1849
554	1895
554	2229
554	2326
554	2685
554	2785
554	3592
554	4314
554	4426
554	4977
555	592
555	711
555	752
555	839
555	887
555	899
555	949
555	1082
555	1273
555	1316
555	1698
555	1856
555	1906
555	1946
555	2034
555	2072
555	2286
555	2415
555	2637
555	2649
555	2839
555	2966
555	3710
555	3920
555	4092
555	4214
555	4317
555	4347
555	4657
555	4704
556	651
556	759
556	815
556	870
556	875
556	939
556	1025
556	1027
556	1047
556	1523
556	1526
556	1576
556	1656
556	1857
556	1893
556	1905
556	2303
556	2316
556	2492
556	2495
556	2507
556	2553
556	2612
556	2803
556	2817
556	3060
556	3087
556	3188
556	3309
556	3338
556	3660
556	3758
556	3826
556	4682
556	4695
557	570
557	571
557	770
557	926
557	943
557	1184
557	1438
557	1617
557	2070
557	2271
557	2709
557	2742
557	2811
557	2952
557	3226
557	3313
557	3462
557	3512
557	4116
557	4436
557	4798
558	565
558	705
558	733
558	754
558	845
558	855
558	1092
558	1123
558	1260
558	1306
558	1382
558	1435
558	1915
558	2172
558	2266
558	2296
558	2360
558	2384
558	2745
558	2755
558	2969
558	3181
558	3575
558	3874
558	4099
558	4101
558	4232
558	4357
558	4370
558	4434
558	4506
558	4626
558	4767
558	4804
559	621
559	657
559	684
559	785
559	822
559	828
559	848
559	862
559	876
559	890
559	1037
559	1055
559	1150
559	1207
559	1210
559	1225
559	1231
559	1256
559	1388
559	1412
559	1562
559	1598
559	1689
559	1753
559	2279
559	2305
559	2349
559	2363
559	2618
559	2846
559	2882
559	3056
559	3283
559	3498
559	4220
559	4237
559	4419
559	4496
559	4537
560	665
560	682
560	701
560	710
560	796
560	870
560	947
560	1172
560	1605
560	1885
560	1924
560	2022
560	2066
560	2079
560	2325
560	2410
560	2422
560	2477
560	2681
560	3073
560	3168
560	3552
560	3575
560	4008
560	4151
560	4734
560	4872
560	4951
561	633
561	692
561	695
561	866
561	959
561	1226
561	1263
561	1288
561	1440
561	1617
561	1734
561	2058
561	2454
561	2458
561	2528
561	2583
561	2633
561	2707
561	3318
561	3344
561	3518
561	4049
561	4192
561	4761
562	783
562	937
562	970
562	991
562	1007
562	1139
562	1352
562	1410
562	1692
562	1786
562	1913
562	2280
562	2360
562	2414
562	2501
562	2632
562	2840
562	3343
562	3355
562	3594
562	3661
562	3768
562	3815
562	3817
562	3838
562	3983
562	4186
562	4356
562	4471
562	4472
562	4526
562	4789
563	670
563	698
563	711
563	731
563	744
563	781
563	835
563	1016
563	1110
563	1284
563	1295
563	1301
563	1349
563	1358
563	1402
563	1422
563	1446
563	1448
563	1504
563	1667
563	1994
563	2176
563	2840
563	3140
563	3161
563	3434
563	3498
563	3689
563	3769
563	3946
563	4382
563	4619
563	4670
563	4692
564	600
564	609
564	683
564	775
564	802
564	840
564	843
564	866
564	871
564	888
564	895
564	906
564	1019
564	1110
564	1161
564	1212
564	1409
564	1467
564	1804
564	1978
564	2067
564	2201
564	2205
564	2236
564	2326
564	2347
564	2418
564	2569
564	2731
564	3019
564	3032
564	3097
564	3098
564	3117
564	3369
564	3610
564	3628
564	3690
564	3774
564	3959
564	4039
564	4139
564	4422
564	4573
564	4643
564	4684
565	631
565	674
565	806
565	1064
565	1121
565	1124
565	1198
565	1219
565	1253
565	1279
565	1281
565	1283
565	1459
565	1500
565	1650
565	1727
565	1771
565	1981
565	2239
565	2336
565	2473
565	2522
565	2876
565	3200
565	3414
565	3756
565	4130
565	4490
565	4704
565	4970
566	613
566	618
566	689
566	911
566	1215
566	1279
566	1460
566	1644
566	1874
566	2142
566	2344
566	2368
566	2409
566	2745
566	2787
566	3052
566	3062
566	3063
566	3389
566	3724
566	3759
566	3787
566	3806
566	3824
566	4167
566	4459
566	4553
566	4738
566	4763
567	612
567	661
567	674
567	721
567	723
567	788
567	1147
567	1234
567	1276
567	1621
567	1882
567	1948
567	2187
567	2250
567	2429
567	2565
567	2569
567	2574
567	3524
567	3596
567	4210
567	4236
567	4289
567	4294
567	4413
567	4440
567	4597
567	4978
568	649
568	868
568	902
568	923
568	983
568	995
568	1077
568	1113
568	1135
568	1195
568	1219
568	1235
568	1254
568	1332
568	1337
568	1341
568	1521
568	2123
568	2180
568	2220
568	2319
568	2565
568	2635
568	2730
568	2787
568	2818
568	3208
568	3453
568	3556
568	3811
568	3886
568	3895
568	3947
568	4433
568	4825
568	4961
569	835
569	1322
569	1383
569	1712
569	2462
569	3388
569	3430
569	3448
569	4134
569	4237
569	4953
570	593
570	631
570	647
570	657
570	733
570	916
570	920
570	940
570	1012
570	1034
570	1077
570	1243
570	1430
570	1450
570	1456
570	1469
570	1539
570	1823
570	1863
570	2034
570	2191
570	2210
570	2575
570	2756
570	2888
570	2891
570	2918
570	2952
570	3123
570	3173
570	3246
570	3330
570	3531
570	3970
570	4192
570	4195
570	4244
570	4483
570	4820
570	4831
571	693
571	717
571	746
571	794
571	970
571	1047
571	1215
571	1224
571	1282
571	1454
571	1506
571	1639
571	1689
571	1895
571	1948
571	1984
571	2415
571	2447
571	2451
571	2516
571	2530
571	2680
571	2735
571	2740
571	2888
571	2899
571	3089
571	3221
571	3284
571	3285
571	3358
571	3676
571	3707
571	3795
571	3800
571	3811
571	3898
571	3965
571	4035
571	4512
571	4707
571	4711
572	600
572	723
572	859
572	904
572	933
572	1326
572	1450
572	1520
572	1610
572	1719
572	1850
572	1978
572	1985
572	2021
572	2026
572	2102
572	2151
572	2195
572	2255
572	2579
572	2720
572	2924
572	3412
572	3489
572	3545
572	3547
572	3672
572	3821
572	3917
572	4081
572	4512
572	4631
572	4731
573	617
573	725
573	764
573	814
573	818
573	863
573	959
573	1021
573	1027
573	1197
573	1266
573	1511
573	1513
573	1528
573	1678
573	1704
573	1745
573	1886
573	1913
573	2052
573	2073
573	2476
573	2489
573	2552
573	2637
573	2811
573	2864
573	2889
573	2917
573	2976
573	3156
573	3427
573	3455
573	3736
573	3767
573	4378
573	4635
573	4861
574	597
574	619
574	660
574	663
574	680
574	787
574	815
574	893
574	941
574	969
574	1003
574	1064
574	1181
574	1228
574	1465
574	1491
574	1693
574	1771
574	1900
574	2123
574	2241
574	2336
574	2364
574	2376
574	2427
574	2740
574	2873
574	3240
574	3283
574	3332
574	3390
574	3753
574	3761
574	3812
574	3941
574	4014
574	4104
574	4172
574	4269
574	4391
574	4529
574	4553
574	4773
574	4858
574	4933
575	598
575	599
575	605
575	622
575	730
575	753
575	790
575	833
575	882
575	924
575	927
575	978
575	1066
575	1092
575	1135
575	1505
575	1551
575	1752
575	1986
575	1993
575	2290
575	2644
575	2694
575	2759
575	2861
575	4015
575	4177
575	4749
576	738
576	948
576	1046
576	1074
576	1094
576	1143
576	1261
576	1289
576	1380
576	1486
576	1972
576	2215
576	2886
576	2952
576	2985
576	3235
576	3784
576	4047
576	4103
576	4173
576	4710
576	4739
577	610
577	715
577	733
577	1243
577	1312
577	1905
577	1970
577	2329
577	2493
577	2565
577	2575
577	2781
577	2866
577	3915
577	3970
577	3974
577	4002
577	4126
577	4563
577	4588
578	614
578	783
578	859
578	926
578	969
578	1185
578	1241
578	1408
578	1442
578	1460
578	1570
578	1730
578	1773
578	1862
578	1872
578	1917
578	2232
578	2311
578	2494
578	2568
578	2859
578	3312
578	3514
578	3664
578	3880
578	4165
578	4467
578	4711
578	4860
579	590
579	642
579	647
579	855
579	876
579	937
579	976
579	979
579	1034
579	1059
579	1090
579	1326
579	1428
579	1578
579	1653
579	1743
579	1870
579	1878
579	2062
579	2066
579	2154
579	2213
579	2577
579	2739
579	2959
579	3016
579	3057
579	3123
579	3352
579	3995
579	4002
579	4454
579	4734
579	4961
580	814
580	844
580	857
580	878
580	1597
580	1808
580	1840
580	1953
580	2085
580	2116
580	2328
580	2458
580	2634
580	2679
580	2806
580	3047
580	3182
580	3206
580	3535
580	3580
580	3584
580	3724
580	3895
580	4060
580	4273
580	4500
580	4577
581	621
581	657
581	659
581	719
581	804
581	895
581	935
581	1045
581	1096
581	1355
581	1397
581	1415
581	1417
581	1420
581	1585
581	1746
581	1816
581	1843
581	1909
581	1950
581	2009
581	2054
581	2132
581	2192
581	2243
581	2300
581	2723
581	2862
581	2900
581	2967
581	3239
581	3299
581	3357
581	3413
581	3810
581	3873
581	3947
581	4223
581	4343
581	4435
581	4473
581	4676
581	4843
581	4849
582	615
582	619
582	644
582	709
582	861
582	911
582	949
582	1024
582	1090
582	1225
582	1249
582	1277
582	1305
582	1405
582	1438
582	1662
582	2216
582	2440
582	2507
582	2516
582	2619
582	2834
582	3234
582	3480
582	3596
582	3752
582	3755
582	3810
582	3846
582	4461
582	4502
582	4723
583	685
583	731
583	797
583	921
583	1101
583	1107
583	1181
583	1377
583	1409
583	1504
583	1529
583	1598
583	1748
583	1983
583	2141
583	2309
583	2325
583	2671
583	2692
583	2782
583	2909
583	3107
583	3213
583	3226
583	3320
583	3400
583	3421
583	3508
583	3531
583	3595
583	3600
583	3731
583	3838
583	3976
583	3990
583	4179
583	4305
583	4361
583	4413
583	4811
583	4905
584	627
584	686
584	776
584	813
584	829
584	1031
584	1102
584	1110
584	1128
584	1178
584	1300
584	1360
584	1532
584	1560
584	1604
584	1750
584	2055
584	2613
584	2827
584	2977
584	3010
584	3227
584	3322
584	3370
584	3588
584	3873
584	3923
584	4204
584	4252
584	4404
584	4659
584	4781
584	4911
585	700
585	722
585	951
585	957
585	1042
585	1302
585	1436
585	2378
585	2747
585	3048
585	3103
585	3184
585	3336
585	3546
585	3615
585	3741
585	3878
585	4230
585	4309
585	4407
585	4414
585	4912
585	4972
586	734
586	783
586	877
586	945
586	951
586	1002
586	1035
586	1362
586	1444
586	1456
586	1481
586	1576
586	2513
586	2590
586	2699
586	2918
586	3023
586	3056
586	3096
586	3143
586	3314
586	3677
586	4041
586	4175
586	4645
586	4769
586	4860
587	668
587	685
587	907
587	950
587	952
587	1052
587	1107
587	1431
587	1441
587	1462
587	1553
587	1561
587	1618
587	1737
587	1754
587	1834
587	1848
587	1935
587	1964
587	2091
587	2157
587	2199
587	2200
587	2262
587	2291
587	2594
587	2951
587	3026
587	3102
587	3532
587	3587
587	3679
587	3715
587	3781
587	3819
587	3900
587	4140
587	4256
587	4694
587	4725
587	4790
587	4844
588	657
588	754
588	843
588	866
588	868
588	917
588	1035
588	1085
588	1186
588	1411
588	1554
588	1675
588	2050
588	2093
588	2129
588	2559
588	2669
588	2694
588	2847
588	2995
588	3696
588	3965
588	4237
588	4280
588	4391
588	4972
589	593
589	621
589	964
589	1113
589	1154
589	1205
589	1448
589	2428
589	2748
589	2892
589	2964
589	3247
589	3357
589	3665
589	3742
589	3851
589	3967
589	3968
589	4009
589	4339
589	4957
589	4977
590	598
590	655
590	770
590	821
590	847
590	964
590	1119
590	1151
590	1339
590	1357
590	1472
590	1523
590	1531
590	1590
590	1735
590	1782
590	1922
590	1945
590	1951
590	2005
590	2012
590	2308
590	2324
590	2356
590	2440
590	2603
590	2670
590	2776
590	2814
590	3354
590	3403
590	4023
590	4610
591	628
591	713
591	734
591	875
591	1213
591	1416
591	1691
591	1718
591	2022
591	2201
591	2398
591	2847
591	3688
591	3801
591	3921
591	4193
591	4718
591	4991
592	622
592	728
592	738
592	749
592	1398
592	1700
592	1740
592	1742
592	1845
592	1871
592	1881
592	2103
592	2392
592	2408
592	2673
592	2911
592	3460
592	3497
592	3785
592	3865
592	4040
592	4049
592	4062
592	4114
592	4213
592	4319
592	4638
592	4683
592	4905
593	613
593	719
593	957
593	1350
593	1425
593	1435
593	1440
593	1688
593	1705
593	2248
593	2326
593	2394
593	2596
593	3787
593	3969
593	4573
593	4959
593	4998
594	702
594	835
594	960
594	1100
594	1258
594	1386
594	1946
594	1951
594	2026
594	2096
594	2238
594	2328
594	2783
594	2901
594	3374
594	4376
594	4690
594	4785
595	627
595	726
595	729
595	971
595	997
595	1066
595	1111
595	1206
595	1347
595	1366
595	1427
595	1435
595	1675
595	1696
595	1697
595	1869
595	2175
595	2337
595	3096
595	3137
595	3329
595	3488
595	3657
595	3679
595	4070
595	4116
595	4259
595	4294
595	4428
595	4623
595	4922
596	642
596	655
596	733
596	753
596	770
596	892
596	1017
596	1018
596	1110
596	1477
596	1478
596	1633
596	1800
596	1848
596	1884
596	2312
596	2373
596	2443
596	2499
596	2583
596	2864
596	2905
596	3025
596	3085
596	3185
596	4044
596	4167
596	4342
596	4370
596	4409
596	4577
596	4792
596	4843
596	4967
597	628
597	751
597	755
597	824
597	1071
597	1156
597	1163
597	1218
597	1382
597	1455
597	1849
597	2450
597	2580
597	2944
597	2945
597	2961
597	2998
597	3045
597	3207
597	3334
597	3417
597	3448
597	3473
597	3612
597	3798
597	3880
597	4535
597	4699
597	4754
597	4881
597	4905
597	4935
598	602
598	667
598	677
598	706
598	733
598	756
598	847
598	877
598	1189
598	1238
598	1248
598	1422
598	1844
598	1845
598	1968
598	1999
598	2061
598	2188
598	2515
598	2585
598	2625
598	2704
598	2716
598	2889
598	2893
598	3038
598	3342
598	3683
598	3873
598	3966
598	4003
598	4367
598	4680
599	656
599	795
599	809
599	935
599	1282
599	1561
599	1851
599	1989
599	2036
599	2072
599	2233
599	2261
599	2384
599	2414
599	2511
599	2700
599	2962
599	3101
599	3198
599	3476
599	3646
599	3653
599	3946
599	4090
599	4237
599	4515
600	669
600	682
600	719
600	739
600	770
600	885
600	1212
600	1317
600	1490
600	1495
600	1638
600	1791
600	1796
600	1811
600	1816
600	1924
600	2276
600	2421
600	2753
600	2843
600	3154
600	3797
600	3902
600	3966
600	4080
600	4135
600	4400
600	4416
600	4475
600	4565
601	690
601	703
601	757
601	1025
601	1228
601	1351
601	1468
601	1533
601	1545
601	1570
601	1650
601	1682
601	1695
601	1701
601	1798
601	1820
601	1846
601	2044
601	2220
601	2222
601	2301
601	2425
601	2551
601	2565
601	2633
601	2696
601	2855
601	2918
601	3035
601	3201
601	3227
601	3424
601	3589
601	3674
601	3903
601	3971
601	4156
601	4577
601	4688
601	4891
601	4933
602	637
602	640
602	696
602	710
602	718
602	722
602	894
602	920
602	977
602	1058
602	1120
602	1224
602	1228
602	1271
602	1364
602	1541
602	1553
602	1604
602	1723
602	1731
602	1830
602	1990
602	2212
602	2215
602	2263
602	2332
602	2340
602	2372
602	2407
602	2637
602	2804
602	3018
602	3196
602	3326
602	3336
602	3441
602	3955
602	4077
602	4120
602	4342
602	4459
602	4893
603	720
603	735
603	906
603	1005
603	1065
603	1236
603	1303
603	1411
603	1580
603	1639
603	1695
603	1748
603	1814
603	2441
603	2611
603	2648
603	2667
603	2679
603	2763
603	2860
603	3126
603	3296
603	3458
603	3628
603	4024
603	4155
603	4647
603	4831
604	617
604	772
604	815
604	920
604	934
604	1072
604	1087
604	1170
604	1187
604	1262
604	1383
604	1384
604	1661
604	1714
604	2338
604	2924
604	3336
604	3461
604	3565
604	4193
604	4298
604	4793
605	617
605	626
605	649
605	705
605	728
605	955
605	1101
605	1133
605	1239
605	1316
605	1421
605	1458
605	1717
605	1723
605	1820
605	1834
605	2071
605	2991
605	3090
605	3231
605	3252
605	3350
605	3362
605	3704
605	3786
605	3839
605	3874
605	3955
605	4001
605	4031
605	4145
605	4194
605	4499
605	4593
605	4646
605	4803
605	4808
605	4929
606	627
606	629
606	680
606	779
606	851
606	892
606	940
606	985
606	1165
606	1434
606	1534
606	1596
606	1607
606	1696
606	1821
606	1839
606	1910
606	1915
606	1997
606	2077
606	2202
606	2224
606	2290
606	2353
606	2421
606	2479
606	2511
606	2615
606	2695
606	2874
606	2914
606	3199
606	3274
606	3396
606	3553
606	3860
606	3890
606	3918
606	3979
606	4122
606	4189
606	4277
606	4354
606	4399
606	4685
606	4701
606	4709
606	4805
606	4880
607	799
607	800
607	860
607	896
607	984
607	1000
607	1212
607	1237
607	1454
607	1650
607	1839
607	1893
607	1915
607	1928
607	2081
607	2088
607	2217
607	2243
607	2297
607	2305
607	2530
607	2630
607	2671
607	2673
607	2893
607	3004
607	3157
607	3176
607	3214
607	3603
607	3658
607	3941
607	4018
607	4022
607	4228
607	4720
607	4897
608	763
608	808
608	887
608	929
608	1026
608	1211
608	1221
608	1282
608	1334
608	1427
608	1473
608	1502
608	1515
608	1543
608	1733
608	1750
608	1828
608	2095
608	2304
608	2588
608	2716
608	2805
608	2881
608	2903
608	3059
608	3161
608	3203
608	3356
608	3409
608	3657
608	3817
608	4001
608	4296
608	4446
608	4515
608	4639
608	4761
608	4775
608	4788
608	4948
609	616
609	721
609	764
609	802
609	845
609	870
609	1091
609	1229
609	1242
609	1558
609	1569
609	1929
609	2095
609	2100
609	2231
609	2281
609	2448
609	2558
609	2566
609	2662
609	2759
609	2887
609	2897
609	3014
609	3097
609	3161
609	3274
609	4073
609	4237
609	4509
609	4801
610	947
610	957
610	966
610	994
610	1035
610	1134
610	1172
610	1615
610	1788
610	1927
610	1947
610	1992
610	2008
610	2099
610	2239
610	2293
610	2534
610	2641
610	2773
610	2846
610	2935
610	3267
610	3437
610	3805
610	3967
610	3986
610	3989
610	4295
610	4419
610	4420
610	4557
610	4631
610	4795
610	4975
611	813
611	956
611	1187
611	1416
611	1447
611	1866
611	2396
611	3112
611	3113
611	3125
611	3465
611	3478
611	3587
611	3712
611	4043
611	4613
611	4648
611	4849
612	785
612	879
612	950
612	1174
612	1236
612	1259
612	1328
612	1432
612	1648
612	1712
612	1832
612	1990
612	2047
612	2095
612	2159
612	2517
612	2978
612	3047
612	3135
612	3570
612	3622
612	3683
612	3852
612	3857
612	4701
612	4846
613	713
613	726
613	906
613	1223
613	1440
613	1783
613	1818
613	2845
613	3220
613	3405
613	4326
613	4767
613	4957
614	756
614	983
614	1095
614	1984
614	2117
614	2196
614	2778
614	3408
615	724
615	741
615	988
615	1015
615	1278
615	1303
615	1319
615	1354
615	1466
615	1480
615	1672
615	1677
615	1749
615	1826
615	1909
615	2018
615	2031
615	2087
615	2404
615	2631
615	2817
615	2885
615	2950
615	2980
615	3010
615	3185
615	3193
615	3355
615	3558
615	3637
615	3760
615	3903
615	3917
615	3962
615	3980
615	4008
615	4064
615	4073
615	4167
615	4236
615	4358
615	4437
615	4546
616	758
616	1100
616	1311
616	1344
616	1396
616	1406
616	2238
616	2254
616	2347
616	2491
616	2650
616	2750
616	2767
616	3320
616	3733
616	3790
616	4160
616	4388
616	4403
616	4547
616	4612
617	640
617	729
617	748
617	779
617	821
617	978
617	1021
617	1030
617	1041
617	1110
617	1174
617	1223
617	1524
617	1759
617	1768
617	1841
617	1852
617	2005
617	2054
617	2113
617	2676
617	2808
617	2906
617	3233
617	3424
617	4131
617	4229
617	4248
617	4632
617	4739
618	664
618	668
618	673
618	690
618	800
618	807
618	889
618	935
618	936
618	1299
618	1456
618	1466
618	1587
618	1752
618	1837
618	1888
618	1916
618	1917
618	2000
618	2038
618	2077
618	2122
618	2214
618	2252
618	2272
618	2516
618	2613
618	2692
618	2873
618	2882
618	3455
618	3745
618	4376
618	4406
618	4624
618	4786
618	4799
618	4828
618	4986
619	1560
619	1671
619	2073
619	2210
619	2416
619	3135
619	3460
619	3970
619	4118
619	4311
619	4826
620	632
620	640
620	652
620	653
620	720
620	912
620	948
620	1210
620	1217
620	1231
620	1300
620	1389
620	1726
620	1730
620	1755
620	2069
620	2092
620	2275
620	2473
620	2750
620	2804
620	2826
620	2910
620	2936
620	3066
620	3160
620	3339
620	3546
620	3812
620	4099
620	4188
620	4328
620	4337
620	4369
620	4774
620	4817
620	4854
621	987
621	1166
621	1185
621	1254
621	1289
621	1623
621	1733
621	1816
621	1969
621	1983
621	2122
621	2231
621	2427
621	2545
621	2757
621	2789
621	2793
621	2962
621	2969
621	2991
621	3001
621	3231
621	3388
621	3411
621	3561
621	4051
622	635
622	825
622	872
622	898
622	1013
622	1129
622	1138
622	1263
622	1372
622	1387
622	1582
622	1694
622	2074
622	2121
622	2134
622	2227
622	2328
622	2429
622	2773
622	3435
622	4291
622	4575
622	4648
622	4847
623	1518
623	1544
623	1723
623	1801
623	1919
623	2174
623	2186
623	2336
623	2475
623	2489
623	2546
623	3144
623	3456
623	3682
623	4459
623	4529
623	4642
623	4784
623	4852
623	4965
624	665
624	771
624	849
624	924
624	1055
624	1065
624	1294
624	1486
624	1667
624	2221
624	2563
624	2925
624	3000
624	3120
624	3155
624	3404
624	3467
624	4041
624	4114
624	4222
624	4549
624	4594
624	4776
625	626
625	646
625	777
625	954
625	1099
625	1203
625	1220
625	1310
625	1337
625	1357
625	1369
625	1543
625	1701
625	1800
625	1808
625	1821
625	1907
625	2146
625	2172
625	2264
625	2332
625	2445
625	2635
625	2874
625	2960
625	3388
625	4447
625	4559
625	4577
626	641
626	960
626	1055
626	1186
626	1393
626	1480
626	1775
626	2002
626	2191
626	2289
626	2347
626	2461
626	2485
626	2594
626	2745
626	2984
626	3424
626	3528
626	3875
626	4069
626	4696
626	4844
626	4906
627	788
627	795
627	821
627	942
627	944
627	955
627	1169
627	1231
627	1288
627	1289
627	1589
627	1938
627	1993
627	2008
627	2206
627	2293
627	2766
627	2870
627	2872
627	3259
627	3465
627	3629
627	3768
627	3843
627	3995
628	680
628	707
628	859
628	916
628	1060
628	1071
628	1370
628	1445
628	1541
628	1837
628	1848
628	2092
628	2658
628	2666
628	2832
628	2970
628	2989
628	3302
628	3383
628	3657
628	3691
628	3696
628	3942
628	3943
628	4027
628	4267
628	4306
628	4725
628	4942
628	4945
628	4983
629	763
629	1099
629	1161
629	1181
629	1338
629	1399
629	1571
629	1622
629	1766
629	1815
629	1838
629	1938
629	2009
629	2096
629	2392
629	2479
629	2679
629	2820
629	2854
629	3019
629	3056
629	3192
629	3229
629	3234
629	3269
629	3403
629	3484
629	4258
629	4314
629	4508
629	4511
629	4544
629	4624
629	4872
630	725
630	780
630	853
630	880
630	951
630	956
630	980
630	1031
630	1168
630	1535
630	1619
630	1635
630	1748
630	1830
630	1859
630	2143
630	2195
630	2198
630	2551
630	2553
630	2673
630	2882
630	2925
630	3061
630	3377
630	3667
630	3700
630	3716
630	3779
630	3785
630	4012
630	4101
630	4129
630	4687
630	4695
631	780
631	1080
631	1869
631	2113
631	2140
631	2728
631	2956
631	3094
631	3214
631	3353
631	3613
631	4316
631	4446
631	4685
632	640
632	693
632	857
632	858
632	906
632	1061
632	1064
632	1142
632	1164
632	1206
632	1283
632	1569
632	1968
632	2262
632	2318
632	2325
632	2326
632	2599
632	2615
632	2820
632	2896
632	2974
632	3057
632	3340
632	3464
632	3471
632	3485
632	3872
632	4264
632	4465
632	4554
632	4839
633	848
633	854
633	945
633	1039
633	1108
633	1109
633	1407
633	1579
633	1582
633	1734
633	1782
633	1846
633	2070
633	2193
633	2266
633	2380
633	2676
633	2887
633	3104
633	3292
633	3521
633	3693
633	3870
633	4072
633	4148
633	4149
633	4341
633	4437
634	666
634	730
634	812
634	820
634	842
634	1249
634	1317
634	1396
634	1635
634	1772
634	1811
634	1890
634	2237
634	2302
634	2677
634	2690
634	2871
634	2927
634	4428
634	4457
634	4664
634	4668
634	4857
634	4865
634	4919
634	4932
635	666
635	792
635	874
635	894
635	897
635	972
635	1030
635	1218
635	1249
635	1408
635	1424
635	1500
635	1570
635	1640
635	1650
635	1878
635	1898
635	2203
635	2524
635	2815
635	2897
635	3231
635	3618
635	3948
635	3992
635	4051
635	4222
635	4411
635	4453
635	4464
635	4500
635	4717
635	4835
636	639
636	659
636	671
636	682
636	774
636	876
636	909
636	1003
636	1020
636	1037
636	1044
636	1136
636	1213
636	1331
636	1387
636	1645
636	1876
636	2246
636	2494
636	2495
636	2533
636	2644
636	2695
636	2854
636	3004
636	3148
636	3670
636	3720
636	4320
636	4905
637	780
637	789
637	795
637	875
637	902
637	1008
637	1269
637	1326
637	1402
637	1578
637	1622
637	1638
637	1672
637	1713
637	1724
637	1834
637	1916
637	2636
637	2746
637	2906
637	2949
637	2972
637	3145
637	3188
637	3604
637	3644
637	3705
637	3994
637	4520
637	4572
637	4767
637	4935
638	896
638	921
638	1005
638	1050
638	1088
638	1095
638	1105
638	1400
638	1452
638	1535
638	1588
638	1719
638	2085
638	2087
638	2505
638	2557
638	2740
638	2880
638	2979
638	2985
638	2990
638	3321
638	3387
638	3413
638	3981
638	4004
638	4127
638	4272
638	4551
638	4575
638	4625
638	4745
638	4782
638	4793
638	4815
639	643
639	704
639	711
639	728
639	754
639	776
639	805
639	808
639	915
639	965
639	1051
639	1093
639	1175
639	1250
639	1538
639	1590
639	1689
639	1715
639	1925
639	2128
639	2165
639	2190
639	2454
639	2554
639	2555
639	2923
639	2955
639	2976
639	3436
639	3480
639	3503
639	3673
639	3768
639	4199
639	4313
639	4649
639	4780
639	4876
639	4888
639	4983
640	708
640	718
640	744
640	808
640	1060
640	1136
640	1189
640	1245
640	1444
640	1666
640	2217
640	2398
640	2420
640	2517
640	2821
640	2850
640	2921
640	3065
640	3074
640	3133
640	3228
640	4303
640	4348
640	4380
640	4440
640	4589
641	666
641	711
641	821
641	872
641	1066
641	1143
641	1156
641	1318
641	1526
641	1559
641	1740
641	1767
641	2180
641	2320
641	2580
641	3054
641	3099
641	3117
641	3334
641	3409
641	4138
641	4206
641	4403
641	4538
641	4643
641	4981
642	995
642	1065
642	1068
642	1362
642	1550
642	1655
642	1707
642	1832
642	2234
642	2690
642	2783
642	2901
642	3150
642	3277
642	3444
642	4934
642	4984
643	714
643	823
643	957
643	1140
643	1374
643	1406
643	1498
643	1841
643	1861
643	2039
643	2129
643	2301
643	2765
643	2978
643	3057
643	3429
643	3712
643	4231
643	4309
643	4590
643	4852
644	689
644	786
644	823
644	975
644	1227
644	1408
644	1973
644	2024
644	2064
644	2702
644	2771
644	2827
644	3221
644	3226
644	3556
644	4303
644	4436
644	4460
644	4642
644	4984
645	665
645	833
645	846
645	984
645	1022
645	1261
645	1351
645	1465
645	1801
645	1944
645	2371
645	2374
645	2392
645	2536
645	3071
645	3261
645	3454
645	3748
645	3777
645	3914
645	3917
645	3966
645	4138
645	4266
645	4570
646	650
646	694
646	796
646	797
646	853
646	1075
646	1323
646	1415
646	1432
646	1443
646	1600
646	1605
646	1929
646	1953
646	1964
646	1965
646	2006
646	2064
646	2080
646	2126
646	2344
646	2357
646	2410
646	2483
646	2601
646	2769
646	2812
646	2844
646	3354
646	3508
646	3510
646	3602
646	3642
646	3699
646	3702
646	3979
646	4079
646	4364
647	810
647	848
647	1060
647	1087
647	1091
647	1121
647	1149
647	1179
647	1196
647	1312
647	1705
647	1896
647	2023
647	2079
647	2157
647	2332
647	2391
647	2556
647	2567
647	3229
647	3290
647	3367
647	4076
647	4367
647	4424
647	4489
647	4765
648	713
648	856
648	1018
648	1256
648	1476
648	1642
648	1687
648	1856
648	1977
648	2499
648	2901
648	3266
648	3474
648	3975
648	4013
648	4853
648	4873
648	4931
649	658
649	770
649	802
649	1042
649	1191
649	1223
649	1309
649	1310
649	1465
649	1671
649	1766
649	2068
649	2247
649	2395
649	2447
649	2528
649	2530
649	2606
649	2748
649	2792
649	2955
649	3082
649	3745
649	3814
649	4624
649	4801
649	4979
650	873
650	1109
650	2145
650	2277
650	2509
650	2640
650	2731
650	2788
650	2887
650	3085
650	3582
650	3660
650	4120
650	4944
651	842
651	878
651	1127
651	1214
651	1247
651	1248
651	1285
651	1312
651	1666
651	1692
651	1721
651	1898
651	2235
651	2328
651	2356
651	2485
651	2648
651	2748
651	2892
651	3479
651	3667
651	4138
651	4563
651	4835
652	656
652	658
652	659
652	728
652	897
652	928
652	1328
652	1352
652	1555
652	1686
652	1867
652	2028
652	2100
652	2174
652	2327
652	2476
652	2520
652	2578
652	2744
652	2802
652	3196
652	3651
652	4238
653	719
653	859
653	910
653	1013
653	1152
653	1191
653	1261
653	1843
653	2054
653	2215
653	2255
653	2489
653	2879
653	2919
653	3000
653	3130
653	4289
654	699
654	1042
654	1106
654	1130
654	1424
654	1587
654	1608
654	1641
654	1647
654	1680
654	1704
654	1774
654	1810
654	1813
654	1938
654	2171
654	2183
654	2207
654	2209
654	2647
654	3159
654	3216
654	3354
654	3441
654	4433
654	4828
655	718
655	750
655	969
655	980
655	990
655	1113
655	1200
655	1440
655	1847
655	1957
655	2301
655	2371
655	2429
655	2487
655	2527
655	2534
655	2632
655	2644
655	2730
655	2735
655	2821
655	3044
655	3146
655	3189
655	3227
655	3229
655	3620
655	3817
655	3846
655	4019
655	4390
655	4435
655	4488
655	4608
655	4724
656	670
656	683
656	816
656	957
656	1131
656	1310
656	2046
656	2685
656	2838
656	3390
656	3915
656	4586
657	692
657	884
657	891
657	980
657	1359
657	1470
657	1500
657	1648
657	2250
657	2403
657	2599
657	3294
657	3605
657	4122
657	4244
657	4259
657	4719
658	847
658	915
658	1043
658	1112
658	1738
658	1860
658	2371
658	2480
658	2968
658	3027
658	3467
658	3476
658	3590
658	4551
658	4625
658	4633
658	4830
659	709
659	997
659	1075
659	1307
659	1883
659	2077
659	2665
659	2682
659	2757
659	2840
659	3002
659	3303
659	3720
659	4222
660	744
660	802
660	823
660	864
660	904
660	970
660	973
660	1105
660	1172
660	1295
660	1316
660	1327
660	1421
660	1467
660	1528
660	1569
660	1650
660	1781
660	1864
660	1969
660	2148
660	2158
660	2405
660	2550
660	2643
660	2691
660	2859
660	3144
660	3227
660	3276
660	3333
660	3350
660	3791
660	3802
660	4216
660	4283
660	4344
660	4404
660	4794
660	4965
660	4996
661	708
661	729
661	754
661	957
661	1024
661	1173
661	1596
661	1616
661	1877
661	1986
661	2083
661	2272
661	2349
661	2406
661	2780
661	2965
661	3171
661	3453
661	3724
661	3774
661	3972
661	4083
661	4206
661	4278
661	4429
661	4461
661	4654
661	4790
662	718
662	850
662	915
662	984
662	1057
662	1059
662	1327
662	1378
662	1562
662	1586
662	1784
662	1972
662	2009
662	2089
662	2412
662	2417
662	2608
662	2628
662	3088
662	3221
662	3842
662	4207
662	4228
662	4585
663	773
663	836
663	842
663	1104
663	1562
663	1854
663	1957
663	2360
663	2632
663	3030
663	3056
663	3336
663	3404
663	3769
663	3812
663	3906
663	4521
664	800
664	1186
664	1271
664	1671
664	1896
664	1964
664	2041
664	2209
664	2812
664	3019
664	3213
664	3514
664	3535
664	3627
664	3695
664	3706
664	3726
664	3874
664	3968
664	4613
665	810
665	844
665	845
665	1000
665	1490
665	1574
665	1617
665	1637
665	1759
665	1836
665	1965
665	2071
665	2080
665	2088
665	2241
665	2257
665	2582
665	2768
665	2876
665	3189
665	3316
665	3411
665	3623
665	4067
665	4242
666	984
666	1232
666	1324
666	1585
666	1875
666	1883
666	1909
666	1988
666	2071
666	2284
666	2451
666	2480
666	2630
666	2739
666	3191
666	3193
666	3227
666	3393
666	4375
666	4664
667	1108
667	1439
667	1563
667	1566
667	1634
667	1962
667	1974
667	1993
667	2138
667	2409
667	2490
667	2521
667	2634
667	2685
667	2910
667	3119
667	3455
667	3570
667	3649
667	3756
667	3821
667	3996
667	4514
667	4604
667	4836
668	920
668	946
668	1051
668	1085
668	1441
668	1674
668	1675
668	1683
668	1790
668	1808
668	1994
668	2119
668	2477
668	2525
668	2647
668	2934
668	3123
668	3353
668	3496
668	3627
668	3651
668	3829
668	3908
668	4215
668	4465
668	4574
668	4759
669	762
669	766
669	840
669	924
669	999
669	1015
669	1019
669	1269
669	1479
669	1548
669	1575
669	1690
669	1775
669	1841
669	1844
669	2390
669	2608
669	3087
669	3120
669	3173
669	3230
669	3273
669	3347
669	3504
669	3554
669	3690
669	4067
669	4074
669	4330
669	4344
669	4525
669	4884
669	4898
670	901
670	1152
670	1163
670	1196
670	1257
670	1268
670	1406
670	1492
670	1661
670	1717
670	1729
670	1786
670	1975
670	2017
670	2033
670	2076
670	2125
670	2127
670	2403
670	3036
670	3375
670	3403
670	3662
670	4427
670	4473
670	4720
670	4827
670	4954
671	710
671	792
671	823
671	877
671	931
671	1004
671	1020
671	1045
671	1242
671	1258
671	1805
671	1866
671	1870
671	1947
671	2053
671	2090
671	2120
671	2219
671	2306
671	2392
671	2747
671	2850
671	2880
671	2940
671	3001
671	3106
671	3295
671	3391
671	3584
671	3727
671	4211
671	4289
671	4536
671	4627
671	4770
671	4916
672	694
672	723
672	886
672	1439
672	1538
672	1546
672	1858
672	1894
672	1931
672	2060
672	2178
672	2200
672	2230
672	2302
672	2382
672	2688
672	2703
672	2923
672	2953
672	2974
672	3062
672	3207
672	3352
672	3356
672	3458
672	3491
672	3791
672	3910
672	4093
672	4101
672	4492
672	4600
673	700
673	761
673	778
673	1023
673	1086
673	1197
673	1393
673	1713
673	1875
673	2108
673	2141
673	2530
673	2587
673	2911
673	3134
673	3697
673	3898
673	3950
674	775
674	818
674	861
674	887
674	1023
674	1186
674	1201
674	1233
674	1387
674	1431
674	1537
674	1590
674	1607
674	1648
674	1735
674	2122
674	2148
674	2151
674	2174
674	2446
674	2718
674	3345
674	3407
674	3510
674	3676
674	3729
674	3749
674	4027
674	4118
674	4692
674	4717
674	4966
675	725
675	749
675	756
675	777
675	852
675	869
675	888
675	934
675	940
675	957
675	1076
675	1083
675	1252
675	1279
675	1752
675	1824
675	1869
675	1986
675	2011
675	2027
675	2101
675	2146
675	2331
675	2921
675	3091
675	3316
675	3325
675	4108
675	4262
675	4297
675	4419
675	4522
676	688
676	691
676	868
676	940
676	996
676	1132
676	1195
676	1239
676	1354
676	1389
676	1493
676	1596
676	1650
676	2018
676	2321
676	2364
676	2409
676	2631
676	2678
676	3343
676	3477
676	4121
676	4894
676	4904
676	4926
677	703
677	784
677	812
677	903
677	964
677	1025
677	1057
677	1183
677	1185
677	1200
677	1206
677	1209
677	1210
677	1230
677	1240
677	1483
677	1750
677	1823
677	1977
677	1987
677	2081
677	2104
677	2357
677	2390
677	2421
677	2540
677	2560
677	2624
677	2769
677	2812
677	3103
677	3209
677	3517
677	3739
677	3744
677	3939
677	4078
677	4135
677	4307
677	4505
677	4842
677	4937
677	4942
678	729
678	760
678	821
678	966
678	1157
678	1196
678	1385
678	1441
678	1707
678	2019
678	2326
678	2427
678	2484
678	2834
678	2993
678	3163
678	3391
678	3620
678	3667
678	3785
678	3942
678	4372
678	4397
678	4630
678	4736
679	683
679	730
679	783
679	892
679	913
679	971
679	990
679	1002
679	1036
679	1191
679	1278
679	1284
679	1582
679	1674
679	1739
679	1791
679	1895
679	1936
679	1964
679	1975
679	2033
679	2045
679	2070
679	2272
679	2311
679	2381
679	2460
679	2608
679	2836
679	2845
679	3027
679	3121
679	3267
679	3427
679	3455
679	3593
679	3625
679	3640
679	3809
679	4062
679	4225
679	4347
679	4579
679	4600
680	689
680	1003
680	1009
680	1019
680	1050
680	1101
680	1122
680	1355
680	1375
680	1607
680	1629
680	1851
680	1861
680	2034
680	2045
680	2210
680	2570
680	2775
680	2826
680	2926
680	3065
680	3096
680	3128
680	3465
680	3557
680	3571
680	3644
680	3917
680	4157
680	4325
680	4335
680	4377
681	784
681	898
681	991
681	1467
681	1645
681	1658
681	1776
681	1829
681	1867
681	1977
681	2446
681	2771
681	2842
681	3017
681	3464
681	3938
681	4413
681	4582
682	756
682	878
682	927
682	1008
682	1009
682	1455
682	1618
682	1621
682	1665
682	1667
682	1805
682	2761
682	2980
682	3155
682	3502
682	3543
682	3925
682	4386
682	4667
682	4860
683	825
683	848
683	881
683	1185
683	1259
683	1401
683	1443
683	1459
683	1527
683	1559
683	1570
683	2134
683	2483
683	2518
683	2605
683	2757
683	2859
683	2987
683	2994
683	3721
683	4161
683	4652
683	4952
684	927
684	934
684	1104
684	1154
684	1194
684	1363
684	1787
684	2247
684	2444
684	2526
684	2528
684	2993
684	3017
684	3400
684	3774
684	4420
684	4704
685	813
685	951
685	968
685	1131
685	1170
685	1343
685	1397
685	1639
685	1712
685	1724
685	1792
685	1843
685	1895
685	1911
685	2348
685	2367
685	2407
685	2494
685	2593
685	2652
685	2946
685	3160
685	3457
685	3474
685	3541
685	3543
685	3641
685	3870
685	3952
686	856
686	951
686	958
686	1089
686	1149
686	1292
686	1308
686	1364
686	1564
686	1577
686	1750
686	1946
686	2416
686	2442
686	2666
686	3250
686	3831
686	3898
686	3953
686	4402
686	4434
687	766
687	957
687	1119
687	1168
687	1245
687	1382
687	1636
687	1728
687	1757
687	1855
687	1867
687	1896
687	2005
687	2091
687	2248
687	2707
687	3085
687	3291
687	3532
687	3923
687	3966
687	4194
687	4211
687	4487
687	4868
688	913
688	963
688	982
688	1220
688	1269
688	1442
688	1629
688	1659
688	1886
688	2234
688	2338
688	2347
688	2650
688	2706
688	2888
688	3034
688	3105
688	3112
688	3174
688	3475
688	3505
688	3522
688	3608
688	3911
688	4006
688	4068
688	4217
688	4304
688	4320
688	4396
688	4434
688	4455
688	4500
688	4872
689	736
689	743
689	826
689	850
689	899
689	1056
689	1081
689	1539
689	1567
689	1568
689	1808
689	1815
689	1998
689	2404
689	2549
689	3127
689	3150
689	4194
689	4326
689	4530
689	4602
689	4870
689	4931
689	4947
690	875
690	878
690	1019
690	1034
690	1250
690	1466
690	1618
690	2104
690	2452
690	2466
690	2703
690	3050
690	3248
690	3343
690	3451
690	3664
690	3808
690	3903
690	4342
690	4630
690	4640
690	4655
690	4666
691	787
691	1122
691	1134
691	1183
691	1199
691	1218
691	1247
691	1450
691	1679
691	1776
691	2059
691	2550
691	2757
691	2824
691	3338
691	3440
691	3502
691	3980
691	4114
691	4162
691	4233
691	4349
691	4854
692	788
692	801
692	833
692	950
692	1056
692	1236
692	1282
692	1591
692	1607
692	1914
692	2071
692	2197
692	2359
692	2554
692	2912
692	3155
692	3275
692	3350
692	3566
692	3608
692	3686
692	3982
692	4078
692	4137
692	4249
692	4583
692	4691
693	893
693	1094
693	1168
693	1334
693	1410
693	1441
693	1444
693	1619
693	2283
693	2358
693	2776
693	3096
693	3313
693	3644
693	3726
693	3762
693	3875
693	4147
693	4229
693	4250
693	4288
693	4355
693	4463
693	4519
693	4784
693	4922
693	4975
694	724
694	840
694	1124
694	1285
694	1317
694	1530
694	2024
694	2251
694	2314
694	2478
694	2532
694	2824
694	2826
694	3310
694	3386
694	3733
694	3820
694	4400
694	4724
694	4770
695	784
695	1127
695	1227
695	1435
695	1510
695	1573
695	1738
695	1919
695	2098
695	2165
695	2214
695	2249
695	2303
695	2407
695	2982
695	3163
695	3513
695	3752
695	3832
695	3878
695	4091
695	4322
695	4468
695	4534
695	4540
695	4750
696	1013
696	1267
696	1467
696	1743
696	1852
696	1997
696	2058
696	2250
696	2363
696	2436
696	3028
696	3126
696	3294
696	3592
696	3613
696	3614
696	4009
696	4128
696	4193
696	4692
697	934
697	954
697	965
697	1013
697	1169
697	1570
697	1654
697	1658
697	2269
697	2349
697	2427
697	2428
697	2450
697	2564
697	2714
697	2871
697	2968
697	3284
697	3397
697	3445
697	3572
697	3982
697	4030
697	4075
697	4395
697	4539
698	757
698	782
698	925
698	949
698	1047
698	1114
698	1212
698	1505
698	1514
698	1679
698	1709
698	1760
698	1814
698	1849
698	2341
698	3275
698	3491
698	3832
698	4386
698	4551
698	4654
699	716
699	846
699	875
699	1063
699	1120
699	1163
699	1170
699	1436
699	1598
699	1664
699	1665
699	1812
699	1838
699	1927
699	2030
699	2043
699	2113
699	2249
699	2251
699	2414
699	2447
699	2515
699	2730
699	3050
699	3052
699	3175
699	3196
699	3204
699	3262
699	3310
699	3427
699	3550
699	3586
699	3686
699	3765
699	3774
699	4591
699	4702
700	784
700	1244
700	1484
700	1548
700	1560
700	1575
700	2009
700	2173
700	2321
700	2492
700	2613
700	2718
700	3248
700	3346
700	3529
700	3572
700	3578
700	3734
700	4476
700	4558
700	4790
700	4817
701	744
701	807
701	955
701	1093
701	1122
701	1438
701	1475
701	1791
701	1861
701	2124
701	2895
701	2968
701	3067
701	3380
701	3656
701	3969
701	3973
701	4216
701	4363
701	4695
701	4722
701	4756
701	4899
701	4905
702	725
702	749
702	751
702	758
702	980
702	1253
702	1441
702	1466
702	1572
702	1862
702	1941
702	2175
702	2445
702	2681
702	2908
702	3608
702	3775
702	3831
702	4451
702	4936
702	4992
703	923
703	977
703	1175
703	1257
703	1483
703	1558
703	1560
703	1568
703	1594
703	1911
703	2143
703	2204
703	2816
703	2963
703	3011
703	3045
703	3069
703	3147
703	3464
703	3737
703	3772
703	4085
703	4347
703	4369
703	4382
703	4477
703	4677
704	807
704	808
704	872
704	938
704	1011
704	1109
704	1294
704	1612
704	1716
704	1737
704	1906
704	2147
704	2272
704	2273
704	2328
704	2398
704	2418
704	2506
704	2820
704	2901
704	3066
704	3161
704	3574
704	3734
704	3890
704	4336
705	717
705	966
705	1061
705	1148
705	1712
705	1911
705	2019
705	2202
705	2682
705	2841
705	2934
705	3491
705	4683
706	725
706	745
706	802
706	988
706	1016
706	1087
706	1164
706	1218
706	1412
706	1538
706	1600
706	1905
706	2055
706	2092
706	2184
706	2344
706	3061
706	3094
706	3303
706	3343
706	3479
706	3635
706	3841
706	4323
706	4438
706	4511
706	4551
706	4901
706	4905
707	758
707	797
707	800
707	801
707	996
707	1025
707	1065
707	1101
707	1120
707	1209
707	1267
707	1346
707	2106
707	2219
707	3142
707	3663
707	3865
707	4387
708	971
708	1045
708	1140
708	1730
708	2197
708	2530
708	2590
708	2692
708	2984
708	2985
709	806
709	862
709	933
709	974
709	1000
709	1016
709	1138
709	1234
709	1490
709	1783
709	1905
709	2235
709	2246
709	2369
709	2373
709	2532
709	2925
709	3476
709	3559
709	3770
709	3824
709	4623
709	4993
710	829
710	839
710	852
710	893
710	1033
710	1086
710	1107
710	1134
710	1153
710	1162
710	1219
710	1285
710	1347
710	1384
710	1425
710	1465
710	1560
710	1590
710	1680
710	1718
710	1724
710	1818
710	2202
710	2352
710	2403
710	2632
710	2714
710	2742
710	2827
710	2935
710	3196
710	3270
710	3349
710	3491
710	3655
710	3751
710	3770
710	3906
710	3998
710	4289
710	4353
710	4895
710	4976
711	898
711	928
711	973
711	974
711	1003
711	1048
711	1146
711	1442
711	1478
711	1610
711	1704
711	1829
711	1838
711	1917
711	1938
711	1988
711	2133
711	2151
711	2400
711	2586
711	2846
711	2998
711	3145
711	3212
711	3368
711	3678
711	3699
711	3706
711	3757
711	4188
711	4253
711	4473
711	4600
711	4761
712	797
712	846
712	1037
712	1179
712	1395
712	1400
712	1465
712	1496
712	1947
712	2030
712	2067
712	2257
712	2370
712	2484
712	2574
712	2922
712	2976
712	4058
712	4465
712	4856
713	755
713	845
713	860
713	1058
713	1155
713	1251
713	1485
713	1545
713	1695
713	1947
713	2065
713	2148
713	2734
713	2910
713	2988
713	2992
713	3043
713	3099
713	3527
713	3804
713	3893
713	3977
713	4224
713	4610
713	4653
714	1130
714	1133
714	1159
714	1322
714	1475
714	1666
714	1837
714	2011
714	2144
714	2491
714	2493
714	2520
714	2527
714	2629
714	2700
714	2803
714	2922
714	3001
714	3005
714	3404
714	3543
714	3729
714	4355
714	4593
714	4797
715	717
715	956
715	965
715	1023
715	1152
715	1190
715	1377
715	1388
715	1440
715	2260
715	2488
715	2816
715	2857
715	2967
715	3776
715	3980
715	4324
715	4332
715	4484
715	4950
715	4986
716	755
716	775
716	790
716	974
716	1044
716	1062
716	1096
716	1110
716	1123
716	1213
716	1430
716	1531
716	1657
716	1726
716	1824
716	1850
716	1897
716	2161
716	2854
716	3801
716	3977
716	4360
716	4485
716	4551
716	4742
716	4971
717	1079
717	1119
717	1141
717	1170
717	1304
717	1625
717	1685
717	1734
717	1791
717	1829
717	1920
717	1938
717	2256
717	2442
717	2496
717	2702
717	2763
717	2828
717	2880
717	2938
717	3069
717	3112
717	3372
717	3457
717	3897
717	4075
717	4197
717	4462
717	4517
717	4795
717	4802
717	4944
718	761
718	805
718	1192
718	1222
718	1265
718	1458
718	1954
718	2056
718	2132
718	2146
718	2486
718	2695
718	2758
718	2840
718	2916
718	2935
718	3055
718	3122
718	3191
718	3818
718	3865
718	3920
718	3929
718	3948
718	3969
718	4256
718	4329
718	4768
718	4899
718	4929
718	4980
719	761
719	818
719	865
719	868
719	1046
719	1068
719	1299
719	1612
719	1862
719	1982
719	2025
719	2313
719	3190
719	3695
719	3912
719	4107
719	4407
719	4408
719	4521
719	4669
719	4915
720	821
720	837
720	977
720	1105
720	1140
720	1222
720	1314
720	1343
720	1536
720	1861
720	2009
720	2111
720	2133
720	2140
720	2210
720	2366
720	2409
720	3182
720	3370
720	3390
720	3698
720	4736
720	4747
721	830
721	964
721	1025
721	1083
721	1190
721	1253
721	1651
721	1931
721	1959
721	2181
721	2251
721	2466
721	2525
721	2764
721	3316
721	3326
721	3330
721	3772
721	3911
721	3946
721	3970
721	4156
721	4224
721	4337
721	4405
721	4483
721	4509
721	4882
722	725
722	749
722	981
722	1068
722	1079
722	1107
722	1175
722	1176
722	1372
722	1469
722	1531
722	1543
722	1558
722	1733
722	1782
722	2081
722	2103
722	2469
722	2556
722	2560
722	2656
722	2858
722	2903
722	3084
722	3563
722	3939
722	4076
722	4098
722	4932
723	799
723	1113
723	1164
723	1362
723	1368
723	1492
723	2388
723	2943
723	3018
723	3851
723	4081
723	4374
723	4404
723	4816
724	801
724	858
724	890
724	985
724	1027
724	1037
724	1044
724	1095
724	1191
724	1454
724	1764
724	2499
724	2525
724	3300
724	3380
724	3471
724	4385
724	4460
724	4603
724	4915
725	1040
725	1364
725	1378
725	1530
725	1631
725	2499
725	2688
725	2689
725	2827
725	3732
725	4536
725	4699
725	4862
725	4969
726	1330
726	1380
726	1777
726	2382
726	2666
726	2852
726	2932
726	3143
726	3803
726	3933
726	4348
726	4466
726	4815
727	777
727	809
727	1169
727	1407
727	1654
727	1877
727	2202
727	2291
727	2581
727	2658
727	3076
727	3269
727	3354
727	3406
727	3598
727	3640
727	3648
727	3700
727	3792
727	4304
727	4421
727	4605
727	4952
727	4957
728	879
728	888
728	909
728	1051
728	1070
728	1365
728	1395
728	1397
728	1581
728	1617
728	1625
728	1631
728	1642
728	1665
728	1810
728	1868
728	1930
728	2089
728	2122
728	2275
728	2321
728	2744
728	2903
728	3009
728	3021
728	3032
728	3199
728	3333
728	3709
728	3779
728	3978
728	4000
728	4055
728	4081
728	4257
728	4328
728	4456
728	4492
728	4683
728	4766
728	4780
728	4804
728	4973
729	750
729	783
729	804
729	900
729	939
729	1171
729	1211
729	1246
729	1485
729	1533
729	1585
729	1619
729	1634
729	1834
729	1900
729	2166
729	2418
729	2526
729	2801
729	2848
729	3092
729	3484
729	3564
729	3593
729	3711
729	3945
729	4082
729	4156
729	4387
729	4605
729	4860
730	765
730	832
730	886
730	938
730	968
730	1094
730	1269
730	1438
730	1608
730	1659
730	1683
730	1897
730	2143
730	2188
730	3007
730	3287
730	3375
730	3527
730	3855
730	3963
730	3975
730	3980
730	4803
731	739
731	900
731	941
731	1018
731	1087
731	1242
731	1480
731	1504
731	1579
731	1675
731	1682
731	2313
731	2423
731	2581
731	2660
731	2756
731	3002
731	3083
731	3478
731	3669
731	3724
731	3930
731	4058
731	4370
731	4729
731	4858
731	4863
732	757
732	819
732	865
732	905
732	928
732	1008
732	1250
732	1260
732	1264
732	1308
732	1430
732	1494
732	1672
732	1695
732	1762
732	1811
732	1867
732	1874
732	2082
732	2083
732	2093
732	2588
732	3200
732	3574
732	3891
732	3911
732	4324
732	4441
732	4485
732	4606
732	4930
732	4937
733	862
733	1072
733	1112
733	1454
733	1761
733	1859
733	2101
733	2572
733	2883
733	3302
733	3751
733	3772
733	3845
733	4647
733	4759
734	868
734	1335
734	1467
734	1779
734	1860
734	1900
734	1939
734	1973
734	2128
734	2200
734	2338
734	2413
734	2578
734	2584
734	2874
734	2880
734	3028
734	3037
734	3322
734	3337
734	3580
734	3710
734	3778
734	3910
734	4017
734	4152
735	812
735	892
735	958
735	1561
735	1644
735	1776
735	1977
735	2365
735	2641
735	2802
735	2905
735	3041
735	3172
735	3413
735	3622
735	4088
735	4303
735	4361
735	4558
735	4640
735	4743
735	4844
735	4916
736	897
736	930
736	970
736	1011
736	1060
736	1081
736	1174
736	1216
736	1328
736	1410
736	1448
736	1576
736	1703
736	1847
736	2111
736	2236
736	2351
736	2457
736	2562
736	2663
736	2817
736	2968
736	2984
736	3047
736	3110
736	3161
736	3279
736	3406
736	3436
736	3473
736	3513
736	3884
736	4388
736	4643
736	4746
736	4851
736	4885
736	4891
737	767
737	834
737	1134
737	1158
737	1275
737	1289
737	1352
737	1356
737	1368
737	1491
737	1533
737	1584
737	1792
737	2254
737	2481
737	2588
737	2656
737	2830
737	3175
737	3483
737	3647
737	3676
737	4146
737	4947
738	773
738	930
738	1051
738	1201
738	1244
738	1468
738	1785
738	1810
738	1958
738	2330
738	2577
738	2777
738	2971
738	2986
738	3002
738	3337
738	3468
738	3821
738	3958
738	4332
739	844
739	880
739	985
739	1123
739	1177
739	1357
739	1508
739	1516
739	1551
739	1564
739	1652
739	1821
739	1950
739	2193
739	2262
739	2264
739	2373
739	2447
739	2754
739	3159
739	3282
739	3340
739	3514
739	3629
739	3791
739	3951
739	4125
739	4612
739	4632
739	4681
740	849
740	969
740	1016
740	1038
740	1370
740	1406
740	1485
740	1487
740	1514
740	1540
740	1744
740	1785
740	1862
740	1996
740	2419
740	2489
740	2705
740	2754
740	3426
740	3678
740	4266
740	4814
740	4875
741	851
741	870
741	1070
741	1251
741	1257
741	1383
741	1989
741	2329
741	2368
741	2606
741	2759
741	3006
741	3370
741	3900
741	4258
741	4616
741	4689
742	743
742	919
742	1576
742	1814
742	1904
742	1971
742	2529
742	2941
742	3101
742	3205
742	3893
742	4091
742	4783
743	767
743	1364
743	1709
743	1827
743	1908
743	1914
743	2244
743	2337
743	2407
743	3013
743	3124
743	3651
743	3681
743	4704
744	795
744	829
744	928
744	1095
744	1103
744	1237
744	1273
744	1443
744	1491
744	1509
744	1882
744	2028
744	2135
744	2484
744	2543
744	2685
744	2767
744	3009
744	4044
744	4408
744	4609
744	4863
744	4937
745	748
745	789
745	1121
745	1181
745	1254
745	1316
745	1509
745	1789
745	1855
745	1965
745	2026
745	2051
745	2074
745	2163
745	2460
745	2674
745	2807
745	2879
745	2946
745	4423
745	4542
745	4977
746	857
746	963
746	990
746	1193
746	1212
746	1350
746	1568
746	1963
746	1984
746	2027
746	2049
746	2910
746	3003
746	3240
746	3393
746	3682
746	3796
746	3903
746	4025
746	4160
746	4926
747	1520
747	1534
747	1576
747	2070
747	2110
747	2268
747	2315
747	2648
747	2770
747	2864
747	3000
747	3068
747	3608
747	3634
747	3835
747	4467
747	4512
747	4780
747	4831
748	969
748	1050
748	1140
748	1659
748	1903
748	2265
748	2394
748	2506
748	2727
748	2729
748	2949
748	2994
748	3034
748	3066
748	3199
748	3392
748	3830
748	4170
748	4265
748	4740
748	4776
748	4879
749	1751
749	1914
749	2230
749	2272
749	2283
749	2721
749	2950
749	3988
749	4609
750	1333
750	1500
750	1591
750	1729
750	1901
750	1994
750	2540
750	2835
750	3020
750	3103
750	3162
750	3515
750	3755
750	4056
750	4075
750	4205
750	4217
750	4486
751	781
751	859
751	997
751	1012
751	1070
751	1165
751	1253
751	1255
751	1369
751	1393
751	1394
751	1496
751	1509
751	1754
751	1849
751	2573
751	2603
751	2786
751	3022
751	3119
751	3539
751	3896
751	3949
751	3984
751	4417
751	4489
752	993
752	1145
752	1146
752	1218
752	1299
752	1319
752	1353
752	1759
752	1763
752	1810
752	2300
752	2339
752	2419
752	2521
752	2645
752	2724
752	2767
752	2988
752	3068
752	3071
752	3318
752	3460
752	3466
752	3572
752	3725
752	4022
752	4049
752	4519
752	4708
752	4865
752	4995
753	1177
753	1787
753	1956
753	2043
753	2078
753	2257
753	2822
753	3420
753	3496
753	3523
753	3664
753	4658
754	1149
754	1168
754	1249
754	1266
754	1451
754	2832
754	2846
754	2915
754	3004
754	4212
754	4261
754	4416
754	4589
754	4736
755	894
755	901
755	1007
755	1297
755	1566
755	1792
755	2079
755	2133
755	2679
755	2766
755	2808
755	3041
755	3175
755	3346
755	3713
755	4003
755	4085
755	4290
755	4455
756	841
756	847
756	853
756	1197
756	1369
756	1599
756	1614
756	1696
756	1900
756	1937
756	1972
756	1974
756	2084
756	2288
756	2451
756	3128
756	3206
756	3545
756	3551
756	3708
756	4114
756	4736
756	4751
756	4758
757	776
757	842
757	880
757	930
757	1202
757	1268
757	1310
757	1312
757	1372
757	1441
757	1870
757	2159
757	2196
757	2292
757	2342
757	2498
757	2539
757	2648
757	2757
757	3146
757	3220
757	3800
757	3900
757	4105
757	4183
757	4711
758	849
758	902
758	974
758	1322
758	1501
758	1670
758	1814
758	1991
758	2154
758	2465
758	2569
758	2834
758	2975
758	3260
758	3284
758	3631
758	4197
758	4748
758	4888
759	882
759	978
759	1024
759	1288
759	1975
759	2169
759	2327
759	2501
759	2830
759	2833
759	3042
759	3050
759	3500
759	3539
759	3737
759	3772
759	3864
759	4464
759	4676
759	4754
759	4935
759	4986
760	784
760	788
760	895
760	1108
760	1139
760	1210
760	1214
760	1277
760	1284
760	1303
760	1331
760	1447
760	1462
760	1517
760	1529
760	1542
760	1549
760	1668
760	1746
760	1755
760	1779
760	1914
760	2282
760	2348
760	2403
760	2495
760	2987
760	3005
760	3073
760	3159
760	3254
760	3310
760	3442
760	3626
760	3630
760	3654
760	3715
760	3921
760	4201
760	4232
760	4292
760	4591
760	4777
760	4785
760	4813
760	4951
760	4964
761	792
761	882
761	1023
761	1430
761	1816
761	2229
761	2449
761	2547
761	2917
761	3231
761	3260
761	3743
761	4687
762	765
762	900
762	987
762	1020
762	1050
762	1120
762	1221
762	1319
762	1400
762	1424
762	1561
762	1641
762	1679
762	1714
762	1941
762	2019
762	2226
762	2263
762	2307
762	2405
762	2598
762	2599
762	2899
762	3005
762	3224
762	3430
762	3457
762	4074
762	4326
762	4440
763	849
763	962
763	1241
763	1267
763	1405
763	1732
763	1834
763	1871
763	2017
763	2563
763	2890
763	2994
763	3020
763	3025
763	3047
763	4221
763	4264
764	833
764	995
764	999
764	1124
764	1196
764	1535
764	1600
764	1683
764	1689
764	2052
764	2282
764	2429
764	2923
764	3195
764	4006
764	4161
764	4357
764	4713
764	4753
765	767
765	812
765	931
765	1177
765	1356
765	1738
765	1873
765	2379
765	2412
765	2631
765	3361
765	3429
765	3490
765	3549
765	3632
765	4353
765	4643
765	4707
765	4871
766	820
766	827
766	938
766	1113
766	1162
766	1651
766	1810
766	1958
766	2156
766	2934
766	3071
766	3168
766	3277
766	4191
766	4252
766	4688
766	4938
767	946
767	1002
767	1030
767	1331
767	1339
767	1486
767	1709
767	2089
767	2134
767	2159
767	2167
767	2583
767	2667
767	3563
767	3647
767	3712
767	3781
767	3876
767	4098
767	4162
767	4321
767	4461
767	4477
767	4863
768	912
768	1142
768	1252
768	1342
768	1376
768	1717
768	2019
768	2193
768	2256
768	2344
768	2687
768	2818
768	2834
768	2855
768	3333
768	3387
768	3465
768	3890
768	4101
768	4676
769	2172
769	2231
769	2612
769	3073
769	3274
769	3298
769	3990
769	4039
769	4131
769	4334
769	4487
769	4760
769	4900
769	4964
770	839
770	1547
770	1739
770	2356
770	2955
770	3095
770	3362
770	3483
770	3556
770	4004
770	4462
770	4598
770	4639
770	4652
770	4836
771	795
771	1119
771	1177
771	1657
771	1914
771	2246
771	2561
771	2764
771	2792
771	4475
771	4562
771	4779
772	1029
772	1100
772	1190
772	1237
772	1353
772	1388
772	1790
772	1813
772	1945
772	2034
772	2218
772	2321
772	2529
772	2568
772	2717
772	2963
772	3238
772	3299
772	3331
772	3707
772	4241
772	4529
772	4552
773	982
773	1112
773	1191
773	1594
773	1607
773	1756
773	1813
773	2063
773	2167
773	2401
773	2430
773	2474
773	2708
773	3029
773	3089
773	3238
773	3337
773	3364
773	3747
773	3755
773	4020
773	4085
773	4289
773	4547
773	4588
773	4668
774	883
774	965
774	1280
774	1581
774	1624
774	1630
774	1655
774	1940
774	2041
774	2114
774	2135
774	2263
774	2568
774	2951
774	2959
774	3547
774	3850
774	4094
774	4233
774	4390
774	4683
774	4763
775	795
775	797
775	825
775	972
775	1120
775	1224
775	1368
775	1389
775	1499
775	1544
775	2109
775	2265
775	2367
775	2841
775	2997
775	3090
775	3139
775	3362
775	3370
775	3482
775	3493
775	3852
775	3864
775	4010
775	4048
775	4093
775	4266
775	4350
775	4624
775	4835
776	878
776	976
776	984
776	1576
776	1684
776	1700
776	2303
776	2501
776	2705
776	3536
776	3750
776	3912
776	4357
776	4451
777	890
777	1128
777	1569
777	1699
777	2025
777	3053
777	3353
777	3473
777	3563
777	3763
777	3806
777	4337
777	4420
777	4470
777	4701
778	799
778	948
778	1061
778	1682
778	1746
778	1847
778	1907
778	2480
778	2525
778	3054
778	3145
778	3405
778	4050
778	4107
778	4336
778	4635
778	4959
779	915
779	1139
779	1377
779	1395
779	1551
779	1625
779	1975
779	3378
780	980
780	1079
780	1115
780	1235
780	1418
780	1695
780	1907
780	2047
780	2485
780	2504
780	2798
780	3382
780	3809
780	3856
780	3895
780	3907
780	4072
780	4154
780	4201
780	4356
780	4366
780	4390
780	4547
780	4679
780	4710
780	4764
781	801
781	848
781	977
781	1049
781	1197
781	1267
781	1433
781	1547
781	1589
781	1747
781	1952
781	2198
781	2465
781	2606
781	2617
781	2787
781	2977
781	3290
781	3449
781	3669
781	4638
781	4753
782	880
782	942
782	1197
782	1264
782	1482
782	1853
782	2248
782	2290
782	3139
782	3814
782	3927
782	4167
782	4375
782	4537
782	4987
783	803
783	1114
783	1487
783	1569
783	1639
783	1645
783	1768
783	1886
783	2264
783	2587
783	2628
783	2917
783	3313
783	3447
783	3468
783	4109
783	4220
783	4261
783	4320
783	4394
783	4579
783	4707
783	4956
784	930
784	935
784	945
784	1113
784	1491
784	1567
784	1633
784	1770
784	1888
784	2174
784	2197
784	3486
784	3576
784	3670
784	4053
784	4292
784	4842
784	4850
784	4960
785	839
785	889
785	967
785	1163
785	1985
785	2011
785	2158
785	3185
785	3190
785	3513
785	3885
785	3944
785	4105
785	4421
785	4741
786	1057
786	1167
786	1223
786	1263
786	1278
786	1300
786	1409
786	1578
786	1685
786	1943
786	2044
786	2290
786	2541
786	2727
786	2793
786	2856
786	3642
786	3658
786	3684
786	3802
786	3928
786	3978
786	4018
786	4253
786	4279
786	4371
786	4582
786	4605
786	4737
786	4927
787	808
787	997
787	1116
787	1172
787	1377
787	1401
787	1453
787	1511
787	1556
787	1820
787	1829
787	1996
787	2332
787	2397
787	2456
787	2532
787	2939
787	2971
787	2986
787	3088
787	3230
787	3442
787	3503
787	3509
787	4007
787	4051
787	4315
787	4583
787	4739
787	4840
788	832
788	868
788	1057
788	1103
788	1126
788	1132
788	1553
788	1825
788	2386
788	2399
788	3025
788	3146
788	3360
788	4325
789	969
789	1029
789	1153
789	1243
789	1309
789	1423
789	1821
789	2340
789	2830
789	2966
789	3277
789	3360
789	4040
789	4053
790	806
790	844
790	1124
790	1305
790	1312
790	1874
790	2030
790	2048
790	2253
790	2323
790	2333
790	2745
790	2778
790	3039
790	3071
790	3402
790	3605
791	961
791	1426
791	2320
791	2412
791	2649
791	2790
791	3159
791	3231
791	3518
791	3680
791	4179
791	4507
791	4565
791	4868
791	4878
792	793
792	913
792	996
792	1009
792	1419
792	1584
792	1666
792	1701
792	2049
792	2094
792	2273
792	2917
792	2948
792	3030
792	3377
792	3413
792	3881
792	4313
792	4547
792	4586
792	4677
792	4841
793	887
793	905
793	1022
793	1032
793	1611
793	1661
793	1707
793	1770
793	1875
793	2572
793	2604
793	2833
793	3207
793	3667
793	4120
793	4434
793	4844
793	4947
794	1031
794	1285
794	1290
794	1354
794	1752
794	1850
794	1967
794	2030
794	2302
794	2844
794	2925
794	3198
794	3841
794	3896
794	4025
794	4077
794	4103
794	4178
794	4568
794	4784
795	943
795	1026
795	1070
795	1382
795	1387
795	1495
795	1647
795	1985
795	2022
795	2425
795	2625
795	2762
795	2898
795	3000
795	3506
795	3563
795	3653
795	3897
795	4083
795	4723
796	838
796	904
796	1025
796	1031
796	1340
796	1429
796	1562
796	1826
796	2122
796	2148
796	2153
796	2190
796	2979
796	3150
796	3239
796	3500
796	3510
796	3970
796	4002
796	4306
796	4816
797	820
797	1027
797	1054
797	1122
797	1129
797	1234
797	1447
797	1475
797	2151
797	2319
797	2406
797	2562
797	2677
797	2712
797	2885
797	3046
797	3077
797	3138
797	3346
797	3422
797	3718
797	3941
797	3945
797	4021
797	4157
797	4464
797	4679
798	816
798	900
798	1040
798	1191
798	1250
798	1332
798	1469
798	1513
798	1610
798	1867
798	1869
798	2145
798	2608
798	2791
798	2973
798	3617
798	4067
798	4191
798	4198
798	4292
798	4506
798	4546
798	4684
799	901
799	1144
799	1501
799	1520
799	1698
799	1725
799	1827
799	2088
799	2136
799	2149
799	2341
799	2787
799	3028
799	3058
799	3220
799	3660
799	3803
799	4572
799	4580
799	4614
799	4812
800	867
800	894
800	1599
800	2919
800	3138
800	3359
800	3407
800	3837
800	3927
800	4112
800	4290
800	4354
800	4462
800	4707
801	952
801	1143
801	1491
801	1933
801	2188
801	2467
801	3256
801	3485
801	3724
801	3828
801	3978
801	4035
801	4050
801	4377
801	4396
801	4719
801	4870
802	894
802	1034
802	1056
802	1111
802	1534
802	1585
802	1605
802	1713
802	1823
802	2001
802	2047
802	2063
802	2073
802	2260
802	2281
802	2309
802	2479
802	2483
802	3787
802	4025
802	4164
802	4893
803	816
803	914
803	934
803	939
803	969
803	1024
803	1028
803	1104
803	1272
803	1327
803	1367
803	1406
803	1514
803	1927
803	2313
803	2396
803	2463
803	2595
803	3065
803	3180
803	3318
803	3387
803	3452
803	3861
803	4029
803	4058
803	4197
803	4336
803	4716
803	4723
804	824
804	866
804	914
804	945
804	1021
804	1056
804	1115
804	1162
804	1213
804	1261
804	1303
804	1457
804	1475
804	1557
804	1560
804	1613
804	1737
804	1749
804	1963
804	1986
804	2116
804	2424
804	2466
804	2595
804	2965
804	2972
804	2973
804	2984
804	3060
804	3069
804	3127
804	3800
804	3931
804	4033
804	4073
804	4104
804	4254
804	4353
804	4453
804	4738
804	4922
805	827
805	987
805	1003
805	1144
805	1404
805	1450
805	1526
805	1842
805	2228
805	2703
805	2807
805	2963
805	3160
805	3183
805	3573
805	3630
805	4145
805	4287
805	4563
806	889
806	1151
806	1270
806	1829
806	2184
806	2286
806	2612
806	2717
806	3626
806	3744
806	3757
806	4085
806	4232
806	4280
806	4650
806	4779
806	4814
806	4976
807	893
807	1106
807	1149
807	1243
807	2367
807	2659
807	3119
807	3240
807	3862
807	3884
807	3948
807	4026
807	4621
807	4958
808	1001
808	1052
808	1145
808	1601
808	1659
808	1807
808	1856
808	1927
808	1931
808	2112
808	2159
808	2188
808	2530
808	2589
808	2706
808	2927
808	3053
808	3183
808	3228
808	3272
808	3308
808	3795
808	3865
808	3963
808	4180
808	4242
808	4687
808	4895
809	814
809	922
809	943
809	998
809	1171
809	1269
809	1369
809	1429
809	1886
809	2057
809	2084
809	2330
809	3026
809	3042
809	3986
810	963
810	1252
810	1364
810	1385
810	1441
810	1451
810	1492
810	1711
810	1791
810	1864
810	1884
810	1929
810	2670
810	2687
810	2750
810	2916
810	3270
810	3375
810	3411
810	3880
810	4399
810	4504
810	4563
811	893
811	955
811	972
811	1080
811	1124
811	1432
811	1531
811	1684
811	1762
811	1771
811	1775
811	1935
811	1943
811	2349
811	2527
811	2734
811	2975
811	3081
811	3259
811	3761
811	3961
811	3976
811	4485
811	4494
811	4609
811	4638
811	4850
811	4867
811	4949
812	989
812	1153
812	1348
812	1394
812	1556
812	1594
812	1878
812	1944
812	2205
812	2597
812	2666
812	2905
812	3019
812	3483
812	4271
812	4395
813	1129
813	1165
813	1531
813	1915
813	2115
813	2845
813	2953
813	3553
813	4415
813	4609
814	836
814	921
814	985
814	1019
814	1221
814	1304
814	1327
814	1349
814	1365
814	1498
814	1513
814	1660
814	1774
814	1930
814	1941
814	2030
814	2184
814	2226
814	2594
814	2840
814	2972
814	2981
814	3271
814	3732
814	3815
814	3823
814	3831
814	4576
814	4602
815	851
815	883
815	906
815	937
815	948
815	1041
815	1224
815	1267
815	1291
815	1304
815	1435
815	1478
815	1591
815	1936
815	1970
815	2083
815	2251
815	2423
815	3390
815	4064
815	4142
815	4277
815	4491
816	839
816	879
816	906
816	2116
816	2411
816	4335
817	843
817	1084
817	1232
817	1451
817	1525
817	1544
817	1576
817	2324
817	2343
817	2393
817	2478
817	2524
817	2525
817	2660
817	2861
817	2967
817	3077
817	3138
817	3154
817	3200
817	3462
817	3528
817	4196
817	4248
817	4592
818	940
818	1237
818	1317
818	1537
818	1574
818	1870
818	2288
818	2797
818	2976
818	3145
818	3323
818	3357
818	4172
818	4695
818	4747
819	1203
819	1311
819	1337
819	1449
819	1540
819	1561
819	1775
819	2032
819	2061
819	2154
819	2259
819	2291
819	2367
819	2735
819	2795
819	3220
819	3360
819	3994
819	4282
819	4398
819	4482
819	4956
820	1175
820	1228
820	1265
820	1278
820	1374
820	1584
820	1611
820	1754
820	2082
820	2144
820	2171
820	2448
820	2618
820	3022
820	3220
820	3351
820	4336
820	4579
820	4583
820	4857
821	914
821	1001
821	1361
821	1417
821	1732
821	2114
821	2118
821	2240
821	2739
821	2748
821	3077
821	3883
821	3937
821	3941
821	4429
822	859
822	881
822	948
822	1040
822	1068
822	1106
822	1533
822	1585
822	1781
822	1847
822	2029
822	2075
822	2282
822	2365
822	2434
822	2448
822	2609
822	2978
822	3079
822	3111
822	3296
822	3489
822	3741
822	4166
822	4195
822	4667
822	4753
822	4775
823	859
823	939
823	946
823	968
823	990
823	1076
823	1119
823	1186
823	1595
823	1622
823	1632
823	1777
823	1945
823	1959
823	2771
823	3408
823	4081
823	4524
823	4832
824	1038
824	1039
824	1325
824	1534
824	1672
824	1835
824	1908
824	2615
824	2846
824	3230
824	3333
824	3404
824	3617
824	3675
824	4012
824	4135
824	4238
824	4525
824	4584
824	4631
824	4642
824	4661
824	4803
824	4881
825	873
825	905
825	996
825	1536
825	1702
825	1756
825	1936
825	2266
825	2337
825	2375
825	2767
825	3370
825	3668
825	3781
825	3980
825	4047
826	978
826	1020
826	1041
826	1089
826	1234
826	1300
826	1556
826	1745
826	1795
826	1815
826	2004
826	2006
826	2092
826	2460
826	2773
826	2780
826	2872
826	2954
826	3097
826	3107
826	3417
826	3621
826	3754
826	3981
826	4123
826	4124
826	4212
826	4403
826	4411
826	4747
826	4990
827	923
827	1013
827	1064
827	1074
827	1190
827	1241
827	1402
827	1414
827	1616
827	1653
827	1779
827	1796
827	1851
827	1880
827	1954
827	2016
827	2065
827	2134
827	2262
827	2561
827	2929
827	3093
827	3375
827	3977
827	4203
827	4275
827	4465
828	834
828	1053
828	1094
828	1266
828	1371
828	1445
828	1506
828	1535
828	1616
828	2067
828	2329
828	2557
828	2635
828	2659
828	2698
828	2700
828	2816
828	2848
828	2851
828	3185
828	3235
828	3609
828	3790
828	3914
828	4546
828	4578
829	1222
829	1255
829	1520
829	1848
829	2123
829	2243
829	2481
829	2502
829	2598
829	2726
829	2821
829	2932
829	3219
829	3708
829	3869
829	4202
829	4345
829	4804
829	4966
830	952
830	971
830	1004
830	1006
830	1157
830	1168
830	1193
830	1204
830	1332
830	1340
830	1347
830	1413
830	1454
830	1548
830	1594
830	1731
830	1795
830	1945
830	2015
830	2657
830	2692
830	3241
830	3287
830	3347
830	3375
830	3553
830	3567
830	3633
830	3692
830	3708
830	3880
830	3914
830	3934
830	4153
830	4238
830	4391
830	4400
830	4698
830	4758
830	4838
830	4965
831	963
831	1063
831	1091
831	1420
831	1501
831	1533
831	1883
831	1931
831	2054
831	2057
831	2213
831	2966
831	3001
831	3033
831	3090
831	3168
831	3633
831	3891
831	4013
831	4343
831	4349
831	4621
831	4960
832	1024
832	1088
832	1181
832	1325
832	1651
832	1743
832	1810
832	1822
832	1950
832	2822
832	3655
832	3971
832	4171
832	4211
833	926
833	982
833	1076
833	1126
833	1146
833	1338
833	1549
833	1667
833	1796
833	1801
833	2358
833	2385
833	2394
833	2573
833	2826
833	2837
833	3010
833	3081
833	3294
833	3335
833	3465
833	3629
833	4430
833	4912
833	4919
833	4957
834	966
834	1155
834	1304
834	1321
834	1336
834	1803
834	1852
834	2371
834	2544
834	2571
834	2735
834	2791
834	3132
834	3456
834	3496
834	3650
834	3711
834	4034
834	4170
834	4239
834	4325
834	4689
834	4767
834	4816
835	1013
835	1015
835	1111
835	1605
835	2050
835	2136
835	2278
835	2288
835	2317
835	2378
835	2952
835	3081
835	3379
835	4781
835	4970
836	894
836	1029
836	1072
836	1349
836	1668
836	1954
836	2240
836	2441
836	2560
836	2619
836	2621
836	2789
836	2820
836	2960
836	3151
836	3170
836	3525
836	3547
836	4587
837	893
837	919
837	1026
837	1201
837	1215
837	1434
837	1800
837	1885
837	2052
837	2154
837	2505
837	2589
837	2705
837	2792
837	2969
837	3031
837	3104
837	3332
837	3367
837	3391
837	3586
837	3745
837	3892
837	4039
837	4174
837	4303
837	4515
837	4830
838	1130
838	1135
838	1375
838	1473
838	1504
838	1556
838	1614
838	1775
838	2042
838	2274
838	2337
838	2583
838	2726
838	3058
838	3064
838	3087
838	3474
838	3528
838	4169
838	4331
838	4392
838	4399
838	4446
838	4551
839	843
839	920
839	929
839	937
839	947
839	1104
839	1201
839	1298
839	1591
839	1608
839	1993
839	2042
839	2062
839	2540
839	2611
839	3004
839	3917
839	4107
839	4318
839	4319
839	4405
839	4414
839	4465
839	4607
839	4801
839	4825
839	4897
840	856
840	871
840	974
840	1238
840	1292
840	1302
840	1307
840	1462
840	1470
840	1547
840	2054
840	2118
840	2230
840	2611
840	2863
840	2929
840	2964
840	3294
840	3537
840	3727
840	3823
840	3886
840	3938
840	4022
841	948
841	1017
841	1029
841	1570
841	1751
841	1847
841	1963
841	2164
841	2271
841	2325
841	2479
841	2698
841	2736
841	2800
841	2854
841	3002
841	3139
841	3200
841	3655
841	3973
841	3982
841	4019
841	4113
841	4307
841	4587
841	4622
841	4840
841	4883
842	914
842	1028
842	1082
842	1378
842	1439
842	1483
842	1667
842	1968
842	2069
842	2108
842	2144
842	3206
842	3349
842	3406
842	3414
842	3941
842	4442
843	1151
843	1223
843	1302
843	1464
843	1505
843	1521
843	1720
843	2135
843	2664
843	2680
843	3102
843	3455
843	3536
843	3645
843	4035
843	4085
843	4234
843	4891
844	997
844	1029
844	1198
844	1285
844	1341
844	1687
844	1890
844	1941
844	2099
844	2626
844	2658
844	2765
844	2814
844	2829
844	2944
844	3308
844	3544
844	4446
844	4471
844	4992
845	945
845	1006
845	1048
845	1107
845	1329
845	1393
845	1396
845	1421
845	1530
845	1861
845	1870
845	2023
845	2094
845	2363
845	2615
845	2666
845	2822
845	2979
845	3020
845	3222
845	3228
845	3306
845	3405
845	3761
845	3835
845	3884
845	4053
845	4071
845	4100
845	4414
845	4460
845	4605
845	4714
845	4735
845	4758
846	970
846	1030
846	1042
846	1146
846	1155
846	1641
846	1711
846	2072
846	2367
846	2494
846	2795
846	2988
846	3225
846	3299
846	3338
846	3565
846	3864
846	3889
846	4009
846	4015
846	4471
846	4477
846	4805
846	4863
846	4875
847	867
847	905
847	939
847	1053
847	1081
847	1085
847	1124
847	1141
847	1357
847	1370
847	1416
847	1435
847	1442
847	1536
847	1552
847	1889
847	2189
847	2323
847	2991
847	3488
847	3559
847	3669
847	3725
847	3899
847	4323
847	4342
848	871
848	983
848	1044
848	1088
848	1096
848	1514
848	1725
848	2297
848	2425
848	3142
848	3384
848	3445
848	3598
848	4161
848	4328
849	890
849	1174
849	1406
849	1413
849	1414
849	1429
849	1433
849	1568
849	1656
849	1699
849	1825
849	1920
849	2103
849	2636
849	3037
849	3164
849	3314
849	3679
849	3986
849	4242
850	1013
850	1111
850	1233
850	1391
850	1490
850	1606
850	1706
850	1918
850	1985
850	2279
850	2289
850	2412
850	2722
850	2951
850	3338
850	4310
850	4465
850	4537
850	4731
850	4764
850	4810
850	4923
851	899
851	915
851	935
851	957
851	1366
851	1373
851	1486
851	1529
851	1818
851	2074
851	2176
851	2706
851	2861
851	2889
851	2983
851	3615
851	3631
851	4062
851	4115
851	4866
851	4967
852	856
852	935
852	955
852	999
852	1015
852	1054
852	1067
852	1798
852	1881
852	1913
852	2269
852	2658
852	2831
852	2846
852	2847
852	3521
852	3619
852	3732
852	4019
852	4040
852	4140
852	4154
852	4252
852	4289
852	4407
852	4624
853	990
853	1070
853	1239
853	1508
853	1816
853	2003
853	2456
853	2712
853	2947
853	3124
853	4052
853	4119
853	4366
853	4436
853	4856
854	895
854	1026
854	1221
854	1339
854	1355
854	1635
854	1728
854	1769
854	1931
854	1978
854	2035
854	2041
854	2355
854	2383
854	2384
854	2590
854	2797
854	3070
854	3311
854	3579
854	3986
854	4153
854	4474
855	1061
855	1070
855	1126
855	1132
855	1537
855	1824
855	1879
855	2196
855	2241
855	2285
855	2899
855	2986
855	3094
855	3136
855	3441
855	3459
855	3552
855	3578
855	3620
855	3855
855	3901
855	4078
855	4206
855	4519
855	4603
856	962
856	1016
856	1116
856	1528
856	1559
856	1600
856	1628
856	1634
856	2553
856	2598
856	2870
856	2980
856	3087
856	3475
856	3957
856	4460
856	4654
856	4728
856	4890
856	4904
856	4954
857	870
857	896
857	897
857	994
857	995
857	1373
857	1449
857	1686
857	2201
857	2460
857	2568
857	2758
857	2777
857	2946
857	3368
857	3517
857	3745
857	4114
857	4421
857	4473
857	4475
857	4494
857	4823
858	911
858	938
858	976
858	1062
858	1073
858	1197
858	1221
858	1322
858	1362
858	1464
858	1598
858	2436
858	2500
858	2623
858	3023
858	3602
858	3829
858	4106
858	4191
858	4459
858	4545
858	4555
859	882
859	979
859	989
859	1142
859	1220
859	1454
859	1534
859	1778
859	2037
859	2038
859	2087
859	2515
859	2919
859	3053
859	3187
859	3398
859	3518
859	3829
859	4244
859	4272
859	4529
859	4598
859	4662
859	4719
859	4961
860	874
860	1118
860	1335
860	1524
860	1598
860	1860
860	2327
860	2334
860	2905
860	3249
860	3544
860	3852
860	4094
861	868
861	1059
861	1142
861	1179
861	1360
861	1619
861	1803
861	1820
861	1853
861	1973
861	2018
861	2083
861	2187
861	2365
861	2630
861	2878
861	2922
861	3109
861	3278
861	3283
861	3567
861	4453
861	4899
862	1099
862	1138
862	1200
862	1775
862	2016
862	2249
862	2944
862	3733
862	4114
862	4421
863	924
863	1143
863	1145
863	1147
863	1181
863	1184
863	1274
863	1390
863	1471
863	1730
863	1867
863	1898
863	2023
863	2089
863	2110
863	2136
863	2301
863	2711
863	2724
863	3030
863	3061
863	3253
863	3531
863	3642
863	3977
863	4101
863	4460
863	4729
863	4929
864	1036
864	1260
864	1360
864	1494
864	1551
864	1576
864	1770
864	1841
864	1959
864	2034
864	2123
864	2274
864	2688
864	2721
864	2908
864	3243
864	4160
864	4226
864	4300
864	4540
865	1049
865	1315
865	1482
865	1566
865	1618
865	2209
865	2224
865	2402
865	2585
865	2667
865	2831
865	3144
865	3297
865	3718
865	3825
865	3923
865	4359
865	4517
865	4591
865	4604
866	1051
866	1099
866	1134
866	1309
866	1468
866	1671
866	1711
866	1803
866	1924
866	2134
866	2423
866	3026
866	3192
866	3276
866	3469
866	3537
866	3684
866	4112
866	4547
866	4985
867	904
867	918
867	1065
867	1533
867	1646
867	1813
867	1929
867	2113
867	2185
867	2499
867	3293
867	3599
867	3739
867	4198
867	4248
867	4333
868	882
868	1042
868	1184
868	1205
868	1209
868	1248
868	1252
868	1326
868	1338
868	1548
868	1591
868	1635
868	1708
868	1740
868	1769
868	1838
868	1849
868	1864
868	2086
868	2162
868	2285
868	2419
868	2581
868	2600
868	2690
868	2888
868	3011
868	3021
868	3224
868	3268
868	3493
868	3546
868	3566
868	3670
868	3914
868	3915
868	3985
868	4076
868	4268
868	4824
869	876
869	893
869	896
869	1129
869	1139
869	1165
869	1359
869	1361
869	1505
869	1676
869	2264
869	2318
869	2373
869	2670
869	3880
869	3917
869	4011
869	4129
869	4138
869	4256
869	4296
869	4387
869	4483
869	4592
870	905
870	958
870	1084
870	1214
870	1306
870	1317
870	1830
870	1920
870	1930
870	1958
870	1975
870	2126
870	2299
870	2339
870	2362
870	2535
870	2537
870	2594
870	2742
870	3052
870	3067
870	3303
870	3837
870	3930
870	4046
870	4057
870	4190
870	4386
870	4387
870	4420
870	4501
870	4747
870	4793
871	1166
871	1422
871	1793
871	1913
871	2173
871	2237
871	2320
871	2368
871	2469
871	2852
871	3041
871	3231
871	3324
871	4010
871	4266
871	4279
871	4493
872	997
872	1182
872	1471
872	1498
872	1504
872	1508
872	1890
872	2210
872	2732
872	2738
872	2805
872	3118
872	3174
872	3341
872	3495
872	3506
872	3511
872	3687
872	3699
872	3955
872	4033
872	4061
872	4617
872	4794
872	4815
873	909
873	933
873	1054
873	1079
873	1105
873	1215
873	1358
873	1382
873	1534
873	1566
873	1708
873	1722
873	1868
873	1971
873	2253
873	2345
873	2678
873	2729
873	2731
873	3033
873	3122
873	3224
873	3466
873	3539
873	3780
873	3808
873	3885
873	4509
873	4520
874	1152
874	1408
874	1491
874	1576
874	1584
874	1619
874	1918
874	2026
874	2031
874	2084
874	2686
874	3404
874	3517
874	3582
874	3812
874	3978
874	3983
874	4279
874	4762
874	4898
874	4900
875	890
875	903
875	1358
875	1525
875	1812
875	2189
875	2213
875	2257
875	2681
875	2816
875	2832
875	2931
875	2934
875	2979
875	3264
875	3603
875	4105
875	4208
875	4678
875	4751
876	962
876	973
876	1051
876	1239
876	1364
876	1434
876	1642
876	1655
876	1680
876	1785
876	1833
876	2050
876	2464
876	2610
876	2872
876	3261
876	3628
876	3643
876	3653
876	3708
876	4018
876	4178
876	4539
876	4661
877	1020
877	1043
877	1137
877	1193
877	1231
877	1412
877	1438
877	1954
877	1981
877	2494
877	2636
877	2756
877	2922
877	3339
877	3573
877	4096
877	4105
877	4194
877	4232
877	4450
877	4556
877	4802
878	1055
878	1135
878	1169
878	1320
878	1631
878	2047
878	2090
878	2173
878	2184
878	2409
878	2577
878	2650
878	2753
878	2914
878	3359
878	3466
878	3991
878	3999
879	1028
879	1179
879	1435
879	1521
879	1700
879	1933
879	2363
879	2458
879	2470
879	2597
879	2653
879	2842
879	2977
879	3096
879	3212
879	3536
879	3658
879	3798
879	4474
879	4817
880	940
880	1121
880	1192
880	1234
880	1245
880	1369
880	1373
880	1455
880	1588
880	1613
880	1638
880	1646
880	1717
880	1818
880	1857
880	1932
880	2150
880	2200
880	2217
880	2279
880	2297
880	2407
880	2423
880	2896
880	2981
880	3084
880	3697
880	3707
880	3862
880	4444
880	4469
880	4711
880	4950
881	923
881	940
881	1005
881	1116
881	1441
881	1557
881	1643
881	1692
881	1947
881	2088
881	2207
881	2372
881	2590
881	2607
881	2647
881	3255
881	3674
881	3691
881	3795
881	4204
881	4216
881	4911
882	978
882	1151
882	1180
882	1339
882	1385
882	1609
882	1714
882	2233
882	2550
882	2631
882	3033
882	3057
882	3223
882	3269
882	3284
882	3332
882	3768
882	3829
882	3994
882	4194
882	4434
882	4846
882	4881
883	1029
883	1502
883	1629
883	1740
883	1801
883	1976
883	2140
883	2714
883	2779
883	2927
883	3549
883	4973
883	4990
884	978
884	1136
884	1424
884	1452
884	1627
884	1892
884	1940
884	2087
884	3571
884	4039
884	4135
884	4663
884	4782
885	1040
885	1112
885	1211
885	1274
885	1334
885	1356
885	1403
885	1641
885	1677
885	1818
885	1833
885	1983
885	2013
885	2051
885	2096
885	2836
885	2863
885	2987
885	3108
885	3153
885	4068
885	4097
885	4241
885	4669
885	4849
886	907
886	1039
886	1063
886	1064
886	1093
886	1241
886	1323
886	1419
886	1536
886	1664
886	1853
886	2013
886	2137
886	2233
886	2290
886	2444
886	2606
886	2732
886	3071
886	3561
886	3935
886	4084
886	4448
886	4479
886	4694
886	4927
887	907
887	920
887	1006
887	1118
887	1165
887	2072
887	2243
887	2274
887	2307
887	2411
887	2947
887	3187
887	3323
887	3349
887	3420
887	3791
887	3895
887	4010
887	4155
887	4276
887	4297
887	4614
887	4688
888	1077
888	1092
888	1286
888	1307
888	1799
888	1837
888	1889
888	2578
888	3199
888	3284
888	3346
888	3585
888	3872
888	4070
888	4164
888	4228
888	4774
888	4974
889	1683
889	2097
889	2886
889	3631
889	3904
889	4390
889	4431
889	4785
890	1571
890	1651
890	1685
890	1787
890	1818
890	1978
890	1982
890	2041
890	2125
890	2244
890	2258
890	2712
890	2720
890	2745
890	2905
890	3168
890	3306
890	3633
890	3876
890	4249
890	4360
890	4392
890	4419
890	4560
890	4880
890	4928
890	4934
891	951
891	1113
891	1125
891	1204
891	1341
891	1348
891	1445
891	1533
891	1559
891	1584
891	1592
891	1757
891	1932
891	2094
891	2316
891	2340
891	2387
891	2895
891	2973
891	3085
891	3643
891	3827
891	4332
891	4505
891	4683
891	4742
892	922
892	994
892	1023
892	1078
892	1147
892	1190
892	1609
892	1619
892	1962
892	2016
892	2065
892	2115
892	2157
892	2761
892	2924
892	3096
892	3223
892	3266
892	3517
892	4086
892	4438
892	4602
892	4764
892	4792
893	931
893	1144
893	1368
893	1612
893	1789
893	1864
893	1903
893	1905
893	1909
893	2426
893	2507
893	2781
893	2786
893	3117
893	3541
893	3569
893	3636
893	3737
893	3946
893	4603
894	1054
894	1088
894	1348
894	1392
894	1477
894	1483
894	1785
894	2292
894	3187
894	3403
894	3949
894	4065
894	4299
894	4386
894	4992
895	994
895	1164
895	1309
895	1338
895	1391
895	1421
895	1488
895	1889
895	1926
895	2052
895	2289
895	3406
895	3433
895	3690
895	3738
895	3740
895	3753
895	4781
895	4952
896	957
896	959
896	966
896	996
896	1038
896	1086
896	1123
896	1189
896	1241
896	1252
896	1271
896	1282
896	1331
896	1361
896	1399
896	1518
896	1564
896	1620
896	1672
896	1718
896	1722
896	1967
896	2046
896	2064
896	2358
896	2382
896	2541
896	2741
896	3409
896	3587
896	3763
896	3847
896	3944
896	3965
896	3984
896	4056
896	4239
896	4379
896	4382
896	4741
896	4927
897	904
897	1222
897	1304
897	1315
897	1376
897	1415
897	1585
897	1796
897	1853
897	2099
897	2133
897	2403
897	2464
897	2617
897	2728
897	2886
897	3063
897	3121
897	3438
897	3490
897	3756
897	4133
897	4231
897	4363
897	4602
897	4704
897	4713
898	932
898	982
898	1116
898	1275
898	1300
898	1304
898	1308
898	1401
898	1442
898	1524
898	1571
898	1718
898	1828
898	1858
898	1949
898	1976
898	2037
898	2128
898	2426
898	2807
898	2881
898	3047
898	3050
898	3133
898	3689
898	3853
898	3855
898	3957
898	3982
898	4078
898	4110
898	4142
898	4186
898	4763
898	4904
899	1079
899	1223
899	1314
899	1348
899	1350
899	1360
899	1534
899	1556
899	1884
899	2012
899	2040
899	2104
899	2116
899	2526
899	2582
899	2633
899	2746
899	3136
899	3284
899	3389
899	3505
899	3543
899	3612
899	3796
899	4047
899	4627
900	978
900	1275
900	1401
900	2060
900	2089
900	2189
900	2490
900	2727
900	2754
900	3134
900	3380
900	3625
900	4026
900	4160
900	4415
900	4466
900	4924
901	1026
901	1244
901	1272
901	1295
901	1490
901	1525
901	1565
901	2160
901	2217
901	2400
901	2815
901	3303
901	3415
901	3689
901	3878
901	4076
902	998
902	1208
902	1219
902	1551
902	1614
902	1707
902	1788
902	1982
902	2184
902	2249
902	2301
902	2390
902	2990
902	3089
902	3188
903	926
903	1269
903	1304
903	1333
903	1543
903	1704
903	1850
903	2161
903	2175
903	2263
903	2974
903	3027
903	3742
903	3752
903	3786
903	4042
903	4457
903	4630
903	4849
903	4976
903	4986
904	1075
904	1155
904	1257
904	1315
904	1318
904	1320
904	1430
904	1586
904	1882
904	1941
904	2148
904	2802
904	3174
904	3534
904	3585
904	3838
904	4340
905	1191
905	1232
905	1308
905	1329
905	1337
905	1487
905	1883
905	1890
905	2078
905	2120
905	2472
905	2671
905	2818
905	2885
905	3053
905	3381
905	3622
905	4300
905	4867
906	1146
906	1593
906	1892
906	1930
906	1988
906	2190
906	3482
906	4570
906	4805
907	1060
907	1405
907	1466
907	1613
907	1665
907	1715
907	1748
907	3030
907	3064
907	3478
907	3519
907	3672
907	4203
907	4283
907	4384
907	4588
907	4845
908	939
908	1135
908	1254
908	1287
908	1373
908	1904
908	2119
908	2204
908	2214
908	2470
908	2582
908	2747
908	2764
908	2968
908	3123
908	3264
908	3590
908	3652
908	3664
908	4348
908	4360
908	4395
908	4528
908	4659
908	4799
909	999
909	1150
909	1670
909	1690
909	2265
909	2350
909	2684
909	2696
909	2781
909	3602
909	3650
909	3848
909	3872
909	4766
910	915
910	1068
910	1098
910	1391
910	1480
910	1862
910	1906
910	2092
910	2129
910	2737
910	3134
910	3289
910	3394
910	3732
910	3900
910	3910
910	4351
910	4354
910	4496
910	4640
910	4644
911	1199
911	1440
911	1612
911	1851
911	2488
911	2492
911	3510
911	3737
911	3823
911	3903
911	4141
911	4257
911	4555
911	4723
911	4939
912	1414
912	1528
912	1542
912	1640
912	2013
912	2110
912	2320
912	2884
912	2915
912	3064
912	3311
912	3342
912	3401
912	3664
912	3936
912	3947
912	4058
912	4167
912	4359
912	4439
912	4998
913	1010
913	1791
913	2255
913	3256
913	3878
913	4913
914	1289
914	1380
914	1693
914	1715
914	1856
914	2072
914	2119
914	2503
914	2592
914	2629
914	2645
914	2704
914	2728
914	3246
915	1118
915	1161
915	1188
915	1232
915	1286
915	1364
915	1399
915	1728
915	1875
915	2281
915	2347
915	2600
915	3035
915	3191
915	4140
915	4661
915	4876
916	1002
916	1581
916	1733
916	1749
916	1807
916	2155
916	2169
916	2496
916	2819
916	3078
916	3348
916	3610
916	3811
916	4024
916	4123
916	4199
916	4794
917	1205
917	1277
917	1374
917	1485
917	1797
917	1800
917	1864
917	2175
917	2499
917	2749
917	2813
917	3132
917	3134
917	3167
917	3767
917	3960
917	4209
917	4814
917	4855
917	4907
918	1123
918	1135
918	1434
918	1719
918	2020
918	2091
918	2590
918	3257
918	3262
918	3687
918	3739
918	4927
919	1026
919	1069
919	1240
919	1244
919	1609
919	1708
919	1779
919	1853
919	1962
919	1997
919	2164
919	2235
919	2306
919	2373
919	2434
919	2618
919	2736
919	2774
919	2972
919	3081
919	3370
919	3879
919	3960
919	4059
919	4117
919	4138
919	4152
919	4325
919	4603
919	4719
919	4726
919	4782
920	953
920	1033
920	1053
920	1118
920	1413
920	1860
920	1877
920	1985
920	2334
920	2610
920	2790
920	3554
920	3722
920	3792
920	4254
920	4394
921	940
921	1097
921	1150
921	1293
921	1316
921	1766
921	2181
921	2296
921	2666
921	2891
921	2939
921	3148
921	3536
921	3743
921	3827
921	4044
921	4130
921	4599
921	4620
921	4756
922	1088
922	1261
922	1266
922	1317
922	1368
922	1390
922	1457
922	1538
922	1765
922	1853
922	1871
922	2042
922	2411
922	2774
922	3010
922	3265
922	3339
922	3476
922	3572
922	3620
922	3745
922	3754
922	3884
922	3895
922	3996
922	4010
922	4178
922	4853
923	1135
923	1368
923	1602
923	1646
923	1910
923	2203
923	2307
923	2488
923	2493
923	2565
923	2621
923	3063
923	3192
923	3905
923	3907
923	4004
923	4327
923	4352
923	4481
923	4609
923	4744
923	4860
924	1167
924	1177
924	1432
924	2016
924	2076
924	2232
924	2424
924	2853
924	3530
924	3607
924	3620
924	4124
924	4350
924	4732
925	961
925	1169
925	1527
925	1892
925	1971
925	2040
925	2099
925	2217
925	2744
925	2922
925	3471
925	3959
925	4298
925	4363
925	4893
925	4994
926	977
926	1002
926	1210
926	1800
926	2221
926	2289
926	2472
926	2736
926	2894
926	2901
926	2902
926	3005
926	3208
926	3491
926	3634
926	4068
926	4533
926	4703
927	1144
927	1153
927	1255
927	1382
927	1434
927	1520
927	1626
927	2177
927	2213
927	2594
927	2633
927	2819
927	2837
927	3138
927	3420
927	3501
927	3809
927	4270
927	4535
927	4797
928	1078
928	1239
928	1319
928	1610
928	1691
928	1693
928	1747
928	2081
928	2138
928	2548
928	3093
928	3138
928	3176
928	3418
928	3733
928	3824
928	4617
928	4747
928	4876
929	969
929	974
929	1413
929	1420
929	1443
929	1739
929	1806
929	1866
929	1982
929	2015
929	2175
929	2349
929	2492
929	3147
929	3674
929	3785
929	4208
929	4648
930	1244
930	1699
930	1705
930	1751
930	1767
930	2095
930	2135
930	2191
930	2215
930	2550
930	2565
930	2658
930	2710
930	2861
930	2888
930	2909
930	3114
930	3128
930	3299
930	3538
930	3621
930	3622
930	3840
930	4152
930	4372
931	1110
931	1164
931	1284
931	1470
931	1481
931	1493
931	1691
931	1874
931	2009
931	2122
931	2493
931	3175
931	4118
931	4841
931	4859
931	4862
931	4926
932	1099
932	1271
932	1275
932	1579
932	1842
932	1942
932	2318
932	2390
932	2786
932	4961
933	1216
933	1489
933	1716
933	1777
933	1858
933	2353
933	2752
933	2967
933	3145
933	3914
933	4133
933	4174
933	4179
933	4889
934	961
934	962
934	971
934	1144
934	1466
934	2045
934	2118
934	2354
934	2514
934	2548
934	2637
934	3164
934	3461
934	4037
934	4190
934	4668
935	1173
935	1518
935	1600
935	1943
935	2437
935	2793
935	2985
935	3149
935	3150
935	3171
935	3246
935	3327
935	3650
935	3822
935	3842
935	3936
935	4296
935	4301
935	4554
935	4903
936	1111
936	1196
936	1342
936	1369
936	1491
936	1651
936	1746
936	1842
936	1891
936	2410
936	2464
936	3080
936	3244
936	3321
936	3522
936	3716
936	4165
936	4412
936	4445
936	4610
936	4690
936	4697
937	1071
937	1253
937	1398
937	1437
937	1632
937	1798
937	2509
937	2544
937	2641
937	2766
937	3316
937	3322
937	3428
937	4035
937	4109
937	4122
937	4257
937	4353
937	4416
937	4605
937	4611
937	4822
938	967
938	987
938	1038
938	1134
938	1679
938	1781
938	1795
938	1867
938	2028
938	2036
938	2188
938	2455
938	2546
938	3046
938	3155
938	3167
938	3887
938	4384
938	4467
938	4629
938	4765
939	1039
939	1217
939	1227
939	1550
939	1773
939	1945
939	1957
939	2029
939	2045
939	2053
939	2060
939	2554
939	2598
939	2819
939	2863
939	2931
939	2935
939	2936
939	2970
939	3154
939	3190
939	3555
939	3761
939	3947
939	4095
939	4169
939	4515
939	4732
940	1080
940	1213
940	1397
940	1404
940	1733
940	1757
940	2372
940	2658
940	2800
940	3116
940	3342
940	3430
940	3513
940	3645
940	4132
940	4792
941	1224
941	2221
941	2797
941	2954
941	3272
941	3282
941	3551
941	4153
941	4621
941	4807
942	2036
942	2041
942	2957
942	3112
942	3678
942	3854
942	4029
943	1021
943	1402
943	1442
943	1628
943	1679
943	1730
943	1774
943	1907
943	2665
943	2704
943	2721
943	2997
943	3457
943	3483
943	3921
943	4610
943	4872
943	4950
943	4983
944	1268
944	1372
944	1410
944	1444
944	1459
944	1656
944	1814
944	1839
944	2615
944	2923
944	2928
944	3132
944	3532
944	4557
944	4602
944	4958
945	1011
945	1088
945	1130
945	1280
945	1333
945	1346
945	1569
945	1577
945	1662
945	1952
945	2254
945	2524
945	2555
945	2556
945	2617
945	2728
945	2738
945	2862
945	2866
945	3197
945	3490
945	4124
945	4275
945	4312
945	4377
945	4525
945	4762
946	1161
946	1261
946	1321
946	1571
946	1573
946	1575
946	1682
946	1740
946	1901
946	1948
946	2001
946	2315
946	2617
946	2689
946	2892
946	2901
946	3384
946	3481
946	3646
946	4525
946	4555
946	4907
947	1240
947	1594
947	2696
947	3147
947	4396
948	1456
948	1483
948	1851
948	2499
948	3248
948	3443
948	3839
948	4514
949	1069
949	1082
949	1719
949	1889
949	2061
949	2159
949	2171
949	2277
949	2357
949	2441
949	2575
949	2978
949	3477
949	4367
949	4410
949	4464
949	4827
950	1086
950	1499
950	1561
950	1846
950	1856
950	1979
950	2007
950	2604
950	2824
950	2833
950	3009
950	3046
950	3405
950	4046
950	4679
951	987
951	1040
951	1078
951	1093
951	1198
951	1432
951	1473
951	2107
951	2364
951	2468
951	2700
951	3030
951	3149
951	3357
951	3500
951	3555
951	4140
952	1425
952	1450
952	1489
952	1804
952	2001
952	2082
952	2199
952	2760
952	3106
952	3181
952	3659
952	3926
952	4322
952	4458
953	1218
953	1274
953	1323
953	1949
953	1966
953	2294
953	2404
953	2661
953	2777
953	3428
953	4105
953	4307
954	1162
954	1245
954	1449
954	1484
954	1585
954	1686
954	2153
954	2173
954	2311
954	2320
954	2336
954	2694
954	2992
954	3003
954	3178
954	3188
954	3565
954	3791
954	4411
954	4560
954	4741
955	1044
955	1247
955	1904
955	1912
955	1954
955	2246
955	2959
955	3138
955	3653
955	3684
955	3747
955	4155
955	4952
956	1025
956	1048
956	1344
956	1476
956	1580
956	1597
956	1937
956	2105
956	2171
956	2587
956	2597
956	2704
956	2784
956	2950
956	2967
956	3138
956	3759
956	3795
956	3906
956	3973
956	3996
956	4096
956	4118
956	4306
956	4314
956	4422
956	4548
956	4729
956	4820
957	965
957	1393
957	1474
957	1512
957	1526
957	1614
957	1706
957	2183
957	2234
957	2281
957	2432
957	2679
957	2801
957	2925
957	2972
957	3311
957	3322
957	3462
957	3470
957	3607
957	3690
957	3738
957	3791
957	3889
957	4071
957	4639
957	4713
958	1624
958	1648
958	1734
958	1792
958	1922
958	2029
958	2748
958	4153
958	4194
959	1015
959	1109
959	1188
959	1264
959	1952
959	1961
959	2055
959	2301
959	2314
959	2471
959	2597
959	2993
959	3532
959	4225
959	4276
959	4508
959	4715
959	4760
960	1154
960	1158
960	1166
960	1468
960	1541
960	1582
960	1751
960	2034
960	2267
960	2294
960	2468
960	2498
960	2855
960	3057
960	3222
960	3304
960	3424
960	3460
960	3591
960	4080
960	4199
960	4297
960	4440
960	4562
961	1098
961	1235
961	1238
961	1279
961	1329
961	1471
961	1826
961	2110
961	2223
961	2260
961	2395
961	2631
961	2661
961	2814
961	3284
961	3365
961	3582
961	3681
961	3713
961	3903
961	4128
961	4414
961	4584
961	4829
961	4865
961	4939
962	998
962	1074
962	1110
962	1132
962	1242
962	1513
962	1528
962	1848
962	1894
962	1923
962	2107
962	2366
962	2557
962	2590
962	3235
962	3272
962	3307
962	3551
962	3694
962	3771
962	3823
962	4479
962	4515
963	1165
963	1175
963	1335
963	1677
963	1847
963	1965
963	1969
963	1975
963	2002
963	2047
963	2077
963	2232
963	2547
963	2616
963	2634
963	2647
963	2673
963	2765
963	2785
963	2961
963	2965
963	3026
963	3083
963	3256
963	3616
963	3679
963	4071
963	4186
963	4236
963	4422
963	4592
963	4925
963	4976
964	980
964	1093
964	1302
964	1553
964	1664
964	1806
964	1899
964	1948
964	2190
964	2264
964	2418
964	2572
964	2699
964	2709
964	3594
964	4200
964	4298
964	4501
964	4606
964	4664
964	4778
964	4797
965	997
965	1034
965	1072
965	1130
965	1166
965	1220
965	1461
965	1478
965	1571
965	1637
965	1725
965	1743
965	1781
965	1841
965	1872
965	1889
965	2009
965	2279
965	2314
965	2583
965	2591
965	2897
965	3119
965	3137
965	3164
965	3227
965	3656
965	3930
965	4255
965	4439
965	4565
965	4610
965	4810
965	4921
965	4936
966	1244
966	1477
966	2252
966	2276
966	2342
966	3121
966	3211
966	3703
966	3730
966	4056
966	4243
966	4691
967	998
967	1023
967	1120
967	1323
967	1620
967	1627
967	1652
967	1870
967	2107
967	2476
967	2514
967	2721
967	2927
967	2946
967	2970
967	3261
967	3514
967	3592
967	3725
967	3770
967	3784
967	3905
967	3990
967	4032
967	4274
967	4334
967	4355
967	4598
967	4711
968	1017
968	1064
968	1097
968	1221
968	1279
968	1513
968	1534
968	1971
968	2019
968	2126
968	2338
968	2466
968	2483
968	2569
968	2701
968	2832
968	2845
968	2860
968	2969
968	3233
968	3943
968	4351
968	4537
968	4679
969	1059
969	1654
969	1723
969	1974
969	2072
969	2178
969	2391
969	2799
969	2940
969	2968
969	3058
969	3235
969	3285
969	3603
969	3683
969	3804
969	3820
969	4030
969	4061
969	4530
969	4906
970	1279
970	1408
970	1467
970	1594
970	1763
970	2263
970	2339
970	2935
970	2997
970	3096
970	3349
970	4124
970	4147
970	4421
970	4873
971	1079
971	1120
971	1346
971	1386
971	1497
971	1638
971	1672
971	2027
971	2062
971	2432
971	2742
971	2975
971	3117
971	3330
971	3627
971	3890
971	3956
971	4025
971	4205
971	4443
971	4611
971	4613
971	4617
971	4910
972	1238
972	1386
972	1452
972	1660
972	1721
972	2346
972	2470
972	2956
972	3229
972	3283
972	3335
972	3424
972	3432
972	3702
972	4152
972	4350
972	4473
972	4734
972	4836
973	1073
973	1118
973	1140
973	1300
973	1383
973	1436
973	1519
973	2055
973	2870
973	3286
973	3300
973	4354
973	4465
973	4633
973	4672
973	4775
973	4873
974	1503
974	1544
974	1597
974	1622
974	1955
974	2154
974	3018
974	3262
974	3826
974	4940
975	1238
975	1684
975	1696
975	1744
975	2242
975	2267
975	2546
975	2642
975	2695
975	2868
975	3344
975	3608
975	3689
975	3839
975	4072
975	4163
975	4303
976	1067
976	1070
976	1106
976	1112
976	1117
976	1384
976	1419
976	1435
976	1496
976	1500
976	1532
976	1617
976	1679
976	2001
976	2358
976	3079
976	3275
976	3517
976	3702
976	3807
976	4111
976	4312
977	1042
977	1127
977	1338
977	1599
977	2056
977	2320
977	2509
977	2620
977	3484
977	3622
977	3651
977	3812
977	3843
977	4103
977	4334
977	4410
977	4416
977	4661
978	1287
978	1373
978	1673
978	1944
978	2157
978	2219
978	2271
978	2332
978	2383
978	2569
978	2609
978	2925
978	2959
978	3007
978	3088
978	3452
978	3614
978	3870
978	4775
978	4815
978	4909
979	1025
979	1734
979	1782
979	1822
979	2077
979	2357
979	2416
979	2482
979	2703
979	2785
979	3155
979	4760
980	1138
980	1222
980	1330
980	1748
980	2043
980	2088
980	2336
980	2502
980	2756
980	2817
980	2865
980	2915
980	2964
980	3027
980	3391
980	3906
980	4049
980	4242
980	4302
980	4526
980	4979
981	1117
981	1159
981	1221
981	1554
981	1770
981	1959
981	2121
981	2147
981	2424
981	2434
981	2609
981	2706
981	2966
981	3204
981	3257
981	3692
981	4365
981	4756
981	4909
982	1147
982	1379
982	1399
982	1441
982	1497
982	1673
982	1963
982	2049
982	2125
982	2648
982	3056
982	3229
982	3534
982	4762
982	4994
983	1089
983	1278
983	1833
983	2003
983	2097
983	2349
983	2561
983	2895
983	3239
983	3292
983	3619
983	4451
983	4938
984	1145
984	1426
984	1461
984	1910
984	1980
984	2026
984	2158
984	2204
984	2437
984	2464
984	2575
984	2775
984	2908
984	2955
984	2983
984	4090
985	1084
985	1199
985	1216
985	1289
985	1418
985	1491
985	1637
985	1776
985	1814
985	1910
985	2008
985	2428
985	2566
985	3159
985	3689
985	4660
986	1150
986	1511
986	1826
986	1919
986	1981
986	2345
986	2376
986	2423
986	2497
986	2549
986	2637
986	2639
986	2669
986	2686
986	3124
986	3158
986	3642
986	3882
986	3889
986	4070
986	4125
986	4516
986	4685
986	4705
986	4758
986	4952
987	1224
987	1228
987	1339
987	1494
987	1678
987	1786
987	1845
987	1995
987	2130
987	2184
987	2353
987	2415
987	2631
987	2664
987	3290
987	3310
987	3653
987	3949
987	3971
987	4043
987	4208
988	1731
988	1799
988	2393
988	3041
988	3046
988	3140
988	3328
988	3396
988	3789
988	4107
988	4342
988	4622
988	4708
989	1095
989	1106
989	1204
989	1220
989	1447
989	1875
989	2020
989	2108
989	2268
989	2448
989	2643
989	2762
989	2838
989	3506
989	3777
989	3978
989	4024
989	4178
989	4371
989	4802
990	1047
990	1070
990	1149
990	1174
990	1537
990	1540
990	1736
990	1759
990	2009
990	2437
990	2478
990	2868
990	3133
990	3155
990	3420
990	3748
990	3933
990	3935
990	4048
990	4265
990	4699
990	4844
990	4975
991	1022
991	1169
991	1277
991	1469
991	1646
991	1763
991	1831
991	1902
991	2181
991	2276
991	3034
991	3050
991	3090
991	3108
991	3206
991	3294
991	3298
991	3734
991	3868
991	3942
991	4340
991	4483
991	4702
991	4778
991	4875
992	1343
992	1354
992	1550
992	1942
992	2206
992	2239
992	2576
992	2588
992	2780
992	3108
992	3252
992	3268
992	3392
992	3410
992	3598
992	4420
992	4541
992	4825
993	1128
993	1189
993	1816
993	2008
993	2342
993	2797
993	3053
993	3263
993	3881
993	4440
994	1036
994	1085
994	1121
994	1178
994	1199
994	1418
994	1591
994	1819
994	1903
994	1910
994	1932
994	2516
994	2580
994	2777
994	2795
994	3528
994	4285
994	4337
994	4616
995	1154
995	1251
995	1294
995	1338
995	1373
995	1491
995	1723
995	1778
995	1885
995	1943
995	2155
995	2386
995	2448
995	2659
995	3084
995	3600
995	4061
995	4346
995	4392
995	4997
996	1073
996	1171
996	1281
996	1291
996	1366
996	1385
996	1403
996	1460
996	1698
996	1778
996	1791
996	1961
996	2012
996	2155
996	2759
996	2793
996	3142
996	3286
996	3435
996	3768
996	3891
996	3965
996	4089
996	4241
996	4824
996	4849
997	1087
997	1091
997	1156
997	1209
997	1233
997	1288
997	1314
997	1368
997	1418
997	1433
997	1504
997	1759
997	2026
997	2276
997	2539
997	3095
997	3279
997	3719
997	3726
997	3848
997	3995
998	1015
998	1457
998	1686
998	1791
998	1974
998	1977
998	2006
998	2027
998	2798
998	3069
998	3125
998	3187
998	3417
998	3522
998	3594
998	3649
998	3662
998	3694
998	3705
998	3856
998	4064
998	4255
998	4629
999	1163
999	1191
999	1452
999	1562
999	1578
999	1588
999	1757
999	1786
999	2198
999	2483
999	2575
999	2637
999	3085
999	3364
999	3748
999	3929
999	4151
999	4236
999	4358
999	4716
999	4793
999	4937
1000	1199
1000	1262
1000	1319
1000	1419
1000	1509
1000	1530
1000	1586
1000	1649
1000	1884
1000	2316
1000	3505
1000	4317
1000	4576
1000	4743
1000	4843
1001	1002
1001	1125
1001	1182
1001	1200
1001	1344
1001	1418
1001	1423
1001	1662
1001	1674
1001	1888
1001	1915
1001	1936
1001	1979
1001	2202
1001	2386
1001	2462
1001	2740
1001	2807
1001	3262
1001	3374
1001	3542
1001	3716
1001	3818
1001	3884
1001	3933
1001	3959
1001	4063
1001	4067
1001	4115
1001	4122
1001	4567
1001	4626
1002	1122
1002	1164
1002	1223
1002	1419
1002	1859
1002	2144
1002	2446
1002	2539
1002	2593
1002	3099
1002	3226
1002	3358
1002	3533
1002	3559
1002	4200
1002	4433
1003	1061
1003	1196
1003	1250
1003	1481
1003	1581
1003	1804
1003	1806
1003	1988
1003	2281
1003	2357
1003	2407
1003	2421
1003	2448
1003	2452
1003	2698
1003	3119
1003	3120
1003	3399
1003	4141
1003	4435
1004	1037
1004	1041
1004	1091
1004	1170
1004	1226
1004	1294
1004	1326
1004	1337
1004	1405
1004	1426
1004	1543
1004	1582
1004	1674
1004	1747
1004	1830
1004	1838
1004	2031
1004	2134
1004	2245
1004	2249
1004	2395
1004	2567
1004	2773
1004	2858
1004	3498
1004	3516
1004	3550
1004	3698
1004	3708
1004	3724
1004	3885
1004	3925
1004	4127
1004	4264
1004	4278
1004	4312
1004	4592
1004	4643
1004	4920
1005	1018
1005	1348
1005	1378
1005	1473
1005	1527
1005	1533
1005	1696
1005	1726
1005	1805
1005	1892
1005	1966
1005	2166
1005	2266
1005	2366
1005	2542
1005	2697
1005	2978
1005	3371
1005	4946
1006	1564
1006	2239
1006	2268
1006	2724
1006	3367
1006	3588
1006	3719
1006	3802
1006	4341
1006	4800
1007	1024
1007	1057
1007	1083
1007	1108
1007	1280
1007	1328
1007	1473
1007	1474
1007	1603
1007	1605
1007	1694
1007	1738
1007	1803
1007	1855
1007	2142
1007	2221
1007	2237
1007	2793
1007	3008
1007	3108
1007	3241
1007	3250
1007	3582
1007	3931
1007	4101
1007	4168
1007	4290
1007	4634
1008	1143
1008	1230
1008	1256
1008	1282
1008	1629
1008	1926
1008	2054
1008	2417
1008	2466
1008	3394
1008	3701
1008	4607
1009	1393
1009	1793
1009	1863
1009	2386
1009	2684
1009	2909
1009	3126
1009	3564
1009	3603
1009	3792
1009	3990
1009	4155
1009	4202
1009	4231
1009	4922
1010	1770
1010	2615
1010	2646
1010	2871
1010	2894
1010	2990
1010	3287
1010	3447
1010	3582
1010	3821
1010	4008
1010	4112
1010	4229
1010	4751
1011	1037
1011	1190
1011	1327
1011	1594
1011	1598
1011	1720
1011	1880
1011	2480
1011	2687
1011	3158
1011	3414
1011	4775
1012	1075
1012	1084
1012	1113
1012	1351
1012	1357
1012	1366
1012	1376
1012	1576
1012	1728
1012	2367
1012	2510
1012	2837
1012	2886
1012	2914
1012	3113
1012	3361
1012	3581
1012	3678
1012	3725
1012	3793
1012	4308
1012	4316
1012	4681
1012	4769
1012	4784
1013	1132
1013	1330
1013	1379
1013	1639
1013	2234
1013	2251
1013	2901
1013	3589
1013	4148
1013	4471
1014	1510
1014	1867
1014	1878
1014	2080
1014	2467
1014	3129
1014	3284
1014	3388
1014	4612
1014	4678
1014	4738
1015	1113
1015	1154
1015	2197
1015	2828
1015	2879
1015	2907
1015	4215
1016	1504
1016	1596
1016	1884
1016	2143
1016	2297
1016	2427
1016	2512
1016	2684
1016	2905
1016	3090
1016	4359
1016	4599
1016	4798
1016	4813
1016	4834
1016	4929
1017	1214
1017	1471
1017	1551
1017	1563
1017	1784
1017	2181
1017	2282
1017	2377
1017	2387
1017	2490
1017	2669
1017	2853
1017	2989
1017	3444
1017	4320
1017	4646
1017	4770
1018	1220
1018	1506
1018	1530
1018	1661
1018	2106
1018	2394
1018	2423
1018	2544
1018	3105
1018	3840
1018	3905
1018	4576
1019	1073
1019	1144
1019	1211
1019	1238
1019	1305
1019	1729
1019	1946
1019	1950
1019	1998
1019	2090
1019	2140
1019	2424
1019	2504
1019	2670
1019	2685
1019	2890
1019	2957
1019	3018
1019	3869
1019	4479
1019	4507
1019	4942
1019	4963
1020	1237
1020	1391
1020	1525
1020	1566
1020	2425
1020	2451
1020	3773
1020	3970
1020	4015
1020	4203
1020	4256
1021	1112
1021	1158
1021	1231
1021	1291
1021	1298
1021	1416
1021	1531
1021	1676
1021	2178
1021	2328
1021	2365
1021	2465
1021	2691
1021	2728
1021	2774
1021	2853
1021	2967
1021	3237
1021	3643
1021	4112
1021	4362
1021	4434
1021	4435
1022	1066
1022	1250
1022	1355
1022	1449
1022	1463
1022	1661
1022	1710
1022	1837
1022	2102
1022	2218
1022	2343
1022	2377
1022	2430
1022	2759
1022	2937
1022	3232
1022	3361
1022	3727
1022	3815
1022	4701
1022	4746
1022	4938
1023	1058
1023	1315
1023	1402
1023	1433
1023	1690
1023	1701
1023	1780
1023	2416
1023	2494
1023	2602
1023	2608
1023	2634
1023	2878
1023	3048
1023	3082
1023	3293
1023	3309
1023	3474
1023	3858
1023	3909
1023	4175
1023	4383
1023	4569
1023	4976
1024	1249
1024	1675
1024	2644
1024	2716
1024	2898
1024	3371
1024	3747
1024	4183
1024	4236
1024	4874
1025	1048
1025	1070
1025	1170
1025	1213
1025	1256
1025	1493
1025	1564
1025	1575
1025	1673
1025	1687
1025	1781
1025	2011
1025	2199
1025	2267
1025	2447
1025	2467
1025	2791
1025	2953
1025	3303
1025	3419
1025	3734
1025	3901
1025	3906
1025	4436
1025	4965
1026	1035
1026	1200
1026	1345
1026	1376
1026	1412
1026	1413
1026	1546
1026	1839
1026	1878
1026	2146
1026	2313
1026	2563
1026	2706
1026	2883
1026	2945
1026	2995
1026	3183
1026	3332
1026	3619
1026	4309
1026	4574
1026	4695
1026	4961
1027	1145
1027	1164
1027	1253
1027	1257
1027	1279
1027	1497
1027	1720
1027	1754
1027	1836
1027	1866
1027	1889
1027	2181
1027	2290
1027	2394
1027	2561
1027	2583
1027	2609
1027	2805
1027	3088
1027	3115
1027	3232
1027	3289
1027	3452
1027	3568
1027	3666
1027	4055
1027	4223
1027	4739
1027	4772
1028	1894
1028	1993
1028	2148
1028	2558
1028	2864
1028	2865
1028	3115
1028	3256
1028	3820
1029	1210
1029	1573
1029	1607
1029	1767
1029	1798
1029	1838
1029	2512
1029	2682
1029	2847
1029	3009
1029	3131
1029	3142
1029	3249
1029	3478
1029	3486
1029	3730
1029	4174
1029	4808
1029	4932
1030	1163
1030	1173
1030	1295
1030	2239
1030	2414
1030	2424
1030	3022
1030	3407
1030	3681
1030	3730
1030	3798
1030	4110
1030	4292
1030	4830
1030	4873
1030	4944
1031	1101
1031	1768
1031	2157
1031	2313
1031	2422
1031	3007
1031	3374
1031	3538
1031	4000
1031	4415
1031	4751
1032	1574
1032	1590
1032	1872
1032	2228
1032	2468
1032	2909
1032	3426
1032	3676
1032	3860
1032	4480
1033	1052
1033	1063
1033	1207
1033	1234
1033	1301
1033	1313
1033	1449
1033	1897
1033	2324
1033	2386
1033	2528
1033	2586
1033	2636
1033	3021
1033	3116
1033	3350
1033	3489
1033	3512
1033	3830
1033	4770
1033	4933
1034	1533
1034	1961
1034	2336
1034	3001
1034	3565
1034	3870
1034	4419
1035	1052
1035	1091
1035	1302
1035	1341
1035	1410
1035	1416
1035	1451
1035	1660
1035	1824
1035	1826
1035	1853
1035	1912
1035	2109
1035	2248
1035	3035
1035	3391
1035	3460
1035	4023
1035	4363
1036	1342
1036	1848
1036	2107
1036	2258
1036	2433
1036	2653
1036	2933
1036	2965
1036	3005
1036	3184
1036	3742
1036	3766
1036	4326
1036	4777
1036	4839
1036	4914
1037	1040
1037	1073
1037	1082
1037	1488
1037	1969
1037	2173
1037	2194
1037	2245
1037	2467
1037	2685
1037	2927
1037	3049
1037	3451
1037	4017
1037	4282
1037	4301
1037	4324
1037	4508
1037	4733
1038	1148
1038	1311
1038	1781
1038	1950
1038	1997
1038	2004
1038	2156
1038	2788
1038	3204
1038	3237
1038	3296
1038	3499
1038	3628
1038	3629
1038	3839
1038	3983
1038	4083
1038	4126
1038	4137
1038	4204
1038	4397
1038	4727
1038	4757
1039	1103
1039	1230
1039	1599
1039	2209
1039	2627
1039	2688
1039	2913
1039	3617
1039	3886
1039	4095
1039	4249
1039	4574
1040	1150
1040	1320
1040	1551
1040	2129
1040	2218
1040	3016
1040	3363
1040	3464
1040	3603
1040	3647
1040	3652
1040	4015
1040	4100
1040	4734
1041	1053
1041	1155
1041	1211
1041	1390
1041	1432
1041	1480
1041	1587
1041	1765
1041	1772
1041	1818
1041	1899
1041	1988
1041	2257
1041	2500
1041	2707
1041	2782
1041	2955
1041	2966
1041	2975
1041	3064
1041	3085
1041	3256
1041	3286
1041	3581
1041	4120
1041	4186
1041	4579
1041	4634
1041	4974
1042	1344
1042	1514
1042	1911
1042	1927
1042	2083
1042	2382
1042	2600
1042	2811
1042	2848
1042	3386
1042	3862
1042	4112
1042	4740
1043	1858
1043	2035
1043	2160
1043	2780
1043	2815
1043	3096
1043	3775
1043	4174
1043	4282
1043	4314
1043	4562
1044	1285
1044	1584
1044	1872
1044	2224
1044	2412
1044	3020
1044	3029
1044	3323
1044	3353
1044	3873
1044	4940
1045	1285
1045	1596
1045	1641
1045	2073
1045	3220
1045	3232
1045	3599
1045	3893
1045	3943
1045	4978
1046	1071
1046	1073
1046	1165
1046	1316
1046	1486
1046	1534
1046	1656
1046	1877
1046	1880
1046	1901
1046	1986
1046	2223
1046	2252
1046	2356
1046	2509
1046	2765
1046	2801
1046	2922
1046	3199
1046	3283
1046	3783
1046	4603
1046	4631
1046	4670
1046	4776
1047	1078
1047	1151
1047	1250
1047	1331
1047	1916
1047	2076
1047	2262
1047	2363
1047	2386
1047	2481
1047	2627
1047	2654
1047	3045
1047	3579
1047	3660
1047	3699
1047	3768
1047	4253
1047	4695
1047	4789
1048	1245
1048	1252
1048	1280
1048	1420
1048	1438
1048	1749
1048	1965
1048	2135
1048	2212
1048	3565
1048	4300
1048	4969
1049	1100
1049	1171
1049	1197
1049	1203
1049	1292
1049	1306
1049	1550
1049	1645
1049	1792
1049	1940
1049	2006
1049	2374
1049	2521
1049	2550
1049	4084
1049	4150
1050	1339
1050	1456
1050	1487
1050	1610
1050	1951
1050	2165
1050	2363
1050	2398
1050	2571
1050	2725
1050	4037
1050	4559
1050	4570
1051	1106
1051	1184
1051	1204
1051	1257
1051	1437
1051	1446
1051	1565
1051	1704
1051	1833
1051	1865
1051	2093
1051	2367
1051	2374
1051	2473
1051	2653
1051	2751
1051	2815
1051	2854
1051	2904
1051	2952
1051	3049
1051	3060
1051	3251
1051	3611
1051	4148
1051	4567
1051	4601
1052	1149
1052	1409
1052	1430
1052	1457
1052	1566
1052	2248
1052	2258
1052	2746
1052	2748
1052	3202
1052	3323
1052	3456
1052	3670
1052	3974
1052	4016
1052	4121
1052	4217
1052	4233
1052	4705
1053	1105
1053	2255
1053	2357
1053	2412
1053	2660
1053	3103
1053	3402
1053	3729
1053	3903
1053	4616
1053	4831
1053	4962
1054	1057
1054	1159
1054	1288
1054	1326
1054	1365
1054	1787
1054	1875
1054	1927
1054	2148
1054	2503
1054	2573
1054	2641
1054	3099
1054	3896
1054	4781
1055	1142
1055	1187
1055	1216
1055	1356
1055	1428
1055	1512
1055	1575
1055	1859
1055	2010
1055	2015
1055	2034
1055	2107
1055	2117
1055	2390
1055	2411
1055	2537
1055	2550
1055	2676
1055	3071
1055	3127
1055	3380
1055	3788
1055	3840
1055	4756
1056	1151
1056	1272
1056	1281
1056	1301
1056	1324
1056	1516
1056	1607
1056	1631
1056	1634
1056	1793
1056	1850
1056	2161
1056	2870
1056	2904
1056	2997
1056	3189
1056	3408
1056	3716
1056	3820
1056	4504
1056	4689
1057	1072
1057	1318
1057	1484
1057	1927
1057	2197
1057	2567
1057	2597
1057	2723
1057	3033
1057	3162
1057	3375
1057	3445
1057	3591
1057	3654
1057	3928
1057	4197
1057	4417
1057	4575
1057	4940
1058	1205
1058	1207
1058	1437
1058	1570
1058	1652
1058	1828
1058	2163
1058	3166
1058	3691
1058	3805
1058	3878
1058	4659
1058	4730
1058	4816
1059	1207
1059	1348
1059	1489
1059	1588
1059	1787
1059	1951
1059	1962
1059	2385
1059	2574
1059	2592
1059	2734
1059	3689
1059	3963
1059	4102
1059	4298
1059	4622
1060	1061
1060	1137
1060	1178
1060	1207
1060	1264
1060	1353
1060	1448
1060	1515
1060	1526
1060	1557
1060	1581
1060	1587
1060	2168
1060	2336
1060	2369
1060	2381
1060	2511
1060	2616
1060	3412
1060	3540
1060	3591
1060	3789
1060	4029
1060	4045
1060	4266
1060	4395
1060	4536
1060	4549
1060	4646
1060	4715
1060	4782
1060	4872
1060	4993
1061	1143
1061	1189
1061	1667
1061	1953
1061	2293
1061	2769
1061	2875
1061	2930
1061	3149
1061	4534
1061	4822
1061	4924
1062	1102
1062	1104
1062	1187
1062	1402
1062	1428
1062	1516
1062	1669
1062	2038
1062	2248
1062	2520
1062	2946
1062	3031
1062	3205
1062	3375
1062	3381
1062	3382
1062	3539
1062	3562
1062	3905
1062	3957
1062	3968
1062	4306
1062	4378
1062	4413
1062	4759
1063	1184
1063	1377
1063	1614
1063	1730
1063	2214
1063	2255
1063	2305
1063	2457
1063	2558
1063	2579
1063	3231
1063	4088
1063	4090
1063	4365
1063	4832
1064	1129
1064	1163
1064	1372
1064	1619
1064	2002
1064	2058
1064	2103
1064	2441
1064	3061
1064	3140
1064	3443
1064	3459
1064	3729
1064	3767
1064	3963
1064	4123
1064	4532
1064	4544
1064	4672
1064	4986
1065	1284
1065	2017
1065	2245
1065	2262
1065	2601
1065	2611
1065	2993
1065	3395
1065	3558
1065	3979
1066	1482
1066	2059
1066	2298
1066	2858
1066	3540
1066	3676
1066	3998
1066	4373
1067	1333
1067	1398
1067	2086
1067	2354
1067	2780
1067	2791
1067	2986
1067	3351
1067	3477
1067	3515
1067	3555
1067	3687
1067	3900
1067	4264
1067	4305
1067	4480
1068	1096
1068	1631
1068	1645
1068	1828
1068	2622
1068	2910
1068	3554
1068	3556
1068	3694
1068	3778
1068	4100
1068	4842
1069	1255
1069	1703
1069	2260
1069	2457
1069	2461
1069	2470
1069	2611
1069	2616
1069	2740
1069	2754
1069	3263
1069	3397
1069	3404
1069	3574
1069	3875
1069	4666
1069	4771
1069	4972
1069	4990
1070	1118
1070	1242
1070	1256
1070	1360
1070	1750
1070	1912
1070	1958
1070	2024
1070	2025
1070	2238
1070	3598
1070	3871
1070	4637
1071	1377
1071	1545
1071	1592
1071	1628
1071	2225
1071	2286
1071	2394
1071	2396
1071	2944
1071	4128
1071	4200
1071	4813
1071	4889
1072	1131
1072	1363
1072	1432
1072	1678
1072	1725
1072	1909
1072	2020
1072	2045
1072	2275
1072	2547
1072	2607
1072	2711
1072	2798
1072	3385
1072	3393
1072	3448
1072	3838
1072	4075
1072	4183
1072	4211
1072	4345
1073	1075
1073	1093
1073	1102
1073	1172
1073	1323
1073	1548
1073	1603
1073	1882
1073	1890
1073	2103
1073	2106
1073	2131
1073	2247
1073	2279
1073	2419
1073	2841
1073	2993
1073	3010
1073	3035
1073	3123
1073	3309
1073	3477
1073	3857
1073	3985
1073	4186
1073	4716
1074	1414
1074	1766
1074	1822
1074	1987
1074	2217
1074	2486
1074	2564
1074	2608
1074	2633
1074	2762
1074	3201
1074	3524
1074	4694
1074	4731
1075	1110
1075	1410
1075	1439
1075	1481
1075	1558
1075	1601
1075	1622
1075	2102
1075	2283
1075	2549
1075	2799
1075	2899
1075	3091
1075	3109
1075	3436
1075	3920
1075	4128
1075	4143
1075	4361
1075	4631
1075	4850
1075	4931
1076	1102
1076	1105
1076	1478
1076	1779
1076	1930
1076	2050
1076	2518
1076	2697
1076	2765
1076	2773
1076	2801
1076	3097
1076	3750
1076	3857
1076	3914
1076	4114
1076	4366
1076	4465
1076	4524
1076	4965
1077	1166
1077	1245
1077	1804
1077	2112
1077	2211
1077	2272
1077	2467
1077	2566
1077	4957
1078	1090
1078	1254
1078	1502
1078	1524
1078	1992
1078	2021
1078	2036
1078	2039
1078	2127
1078	2193
1078	2198
1078	2321
1078	2548
1078	2859
1078	2876
1078	3313
1078	3518
1078	4015
1078	4338
1078	4460
1078	4828
1079	1109
1079	1166
1079	1198
1079	1238
1079	1311
1079	1424
1079	1509
1079	1590
1079	1634
1079	1687
1079	1738
1079	1823
1079	1922
1079	2235
1079	2256
1079	2749
1079	3086
1079	3102
1079	3337
1079	3434
1079	3492
1079	3553
1079	3620
1079	3693
1079	3722
1079	3758
1079	4215
1079	4320
1079	4667
1079	4887
1080	1111
1080	1211
1080	1362
1080	1730
1080	1795
1080	2046
1080	2075
1080	2172
1080	2211
1080	2660
1080	2721
1080	3155
1080	3157
1080	3452
1080	3847
1080	4043
1080	4124
1080	4163
1080	4387
1080	4528
1081	1105
1081	1135
1081	1476
1081	1558
1081	1662
1081	2045
1081	2184
1081	2308
1081	2524
1081	2779
1081	2791
1081	2857
1081	2963
1081	3016
1081	3049
1081	3134
1081	3175
1081	3416
1081	3512
1081	3894
1081	3902
1081	4113
1081	4213
1081	4368
1081	4572
1081	4992
1082	1156
1082	1513
1082	1851
1082	1952
1082	2437
1082	2886
1082	2994
1082	3096
1082	3244
1082	3385
1082	3744
1082	3967
1082	4034
1082	4124
1082	4600
1083	1105
1083	1166
1083	1193
1083	1453
1083	1659
1083	1805
1083	1842
1083	2256
1083	2283
1083	2302
1083	2698
1083	2775
1083	3268
1083	3556
1083	4339
1084	1092
1084	1153
1084	1211
1084	1362
1084	1636
1084	2048
1084	2227
1084	2379
1084	2739
1084	2743
1084	2995
1084	3086
1084	3285
1084	3427
1084	3472
1084	3728
1084	3796
1084	3816
1084	4107
1084	4452
1085	1795
1085	1906
1085	2347
1085	2881
1085	2889
1085	2985
1085	3749
1085	3895
1085	4015
1085	4803
1086	1142
1086	1167
1086	1298
1086	1373
1086	1565
1086	1581
1086	1721
1086	1777
1086	1866
1086	1889
1086	2609
1086	2814
1086	2878
1086	2893
1086	2912
1086	4353
1086	4571
1086	4651
1086	4872
1087	1200
1087	1224
1087	1301
1087	1695
1087	1746
1087	1825
1087	2258
1087	2310
1087	2360
1087	2595
1087	2655
1087	2675
1087	2837
1087	2934
1087	4496
1088	1180
1088	1221
1088	1345
1088	2883
1088	2943
1088	2989
1088	3165
1088	3261
1088	3448
1088	3810
1088	3953
1088	4144
1088	4153
1088	4406
1088	4718
1089	1339
1089	1406
1089	1413
1089	1916
1089	2309
1089	2430
1089	2626
1089	3873
1089	3974
1089	4428
1089	4445
1089	4486
1090	1177
1090	1320
1090	1355
1090	1500
1090	2251
1090	2424
1090	2923
1090	2970
1090	3094
1090	3216
1090	3559
1090	3964
1090	4409
1090	4783
1091	1347
1091	1413
1091	1529
1091	1553
1091	1631
1091	1642
1091	1734
1091	1937
1091	2134
1091	2463
1091	2508
1091	3015
1091	3573
1091	4391
1091	4558
1091	4592
1091	4847
1092	1202
1092	1493
1092	1617
1092	1697
1092	1803
1092	1910
1092	1941
1092	2179
1092	2494
1092	2722
1092	3041
1092	3235
1092	3552
1092	3839
1092	4562
1092	4595
1092	4975
1093	1162
1093	1297
1093	1356
1093	1389
1093	2079
1093	2202
1093	2459
1093	2652
1093	2841
1093	3120
1093	3238
1093	3297
1093	4004
1093	4345
1094	1167
1094	1265
1094	1267
1094	1423
1094	1547
1094	1857
1094	2476
1094	2812
1094	2944
1094	3292
1094	3381
1094	3795
1094	4353
1094	4458
1094	4736
1094	4917
1095	1153
1095	1656
1095	1702
1095	1761
1095	1957
1095	2800
1095	3709
1096	1133
1096	1194
1096	1338
1096	1598
1096	1693
1096	1807
1096	2397
1096	2398
1096	2729
1096	2819
1096	2990
1096	3070
1096	3300
1096	3362
1096	3586
1096	3646
1096	3881
1096	4213
1096	4333
1096	4489
1097	1342
1097	1431
1097	1540
1097	1711
1097	1899
1097	2057
1097	2454
1097	2510
1097	2529
1097	2596
1097	2795
1097	2885
1097	2942
1097	3165
1097	3324
1097	3476
1097	3714
1097	4040
1097	4121
1097	4412
1097	4482
1097	4504
1098	1202
1098	1347
1098	1407
1098	1563
1098	1684
1098	1705
1098	1845
1098	1906
1098	1965
1098	2270
1098	2415
1098	2559
1098	2738
1098	2917
1098	3345
1098	3816
1098	4702
1099	1259
1099	1315
1099	1348
1099	1396
1099	1562
1099	1667
1099	1758
1099	2130
1099	2255
1099	2481
1099	2522
1099	2555
1099	2735
1099	2754
1099	3213
1099	3343
1099	3453
1099	3887
1099	4042
1099	4166
1099	4477
1099	4499
1099	4569
1099	4804
1099	4922
1100	1214
1100	1283
1100	1412
1100	1479
1100	1540
1100	1945
1100	1980
1100	2085
1100	2169
1100	2208
1100	2424
1100	2426
1100	2453
1100	2736
1100	2767
1100	3022
1100	3175
1100	3229
1100	3416
1100	3477
1100	3485
1100	4006
1100	4142
1100	4174
1100	4180
1100	4444
1100	4611
1100	4618
1100	4625
1101	1188
1101	1440
1101	1544
1101	1634
1101	1897
1101	2249
1101	2291
1101	2445
1101	2496
1101	2630
1101	4271
1101	4542
1101	4669
1101	4913
1102	1137
1102	1520
1102	1552
1102	1610
1102	1619
1102	1639
1102	1780
1102	1919
1102	2165
1102	2342
1102	2379
1102	2440
1102	2592
1102	2741
1102	2787
1102	2880
1102	3023
1102	3209
1102	3423
1102	3895
1102	4026
1102	4146
1102	4308
1102	4362
1102	4375
1102	4639
1102	4826
1103	1269
1103	1306
1103	1888
1103	2122
1103	2419
1103	2488
1103	2556
1103	2720
1103	2926
1103	3068
1103	3865
1103	3924
1103	4666
1104	1242
1104	1653
1104	2140
1104	2159
1104	2189
1104	2299
1104	2322
1104	2421
1104	2428
1104	2595
1104	2637
1104	2733
1104	2849
1104	3729
1104	4061
1104	4079
1104	4344
1104	4419
1104	4533
1104	4551
1104	4562
1104	4626
1105	1533
1105	1745
1105	1908
1105	1983
1105	2108
1105	2179
1105	2597
1105	2678
1105	2786
1105	3084
1105	3109
1105	3131
1105	3873
1105	3988
1106	1114
1106	1124
1106	1163
1106	1232
1106	1345
1106	1351
1106	1390
1106	1421
1106	1621
1106	1717
1106	1792
1106	1814
1106	2360
1106	2829
1106	3573
1106	3749
1106	3796
1106	3922
1106	4141
1106	4425
1106	4993
1107	1720
1107	1792
1107	2082
1107	2084
1107	2151
1107	2326
1107	2505
1107	2708
1107	2715
1107	2778
1107	2959
1107	3063
1107	3252
1107	3267
1107	4294
1108	1179
1108	1315
1108	1750
1108	2004
1108	2053
1108	2070
1108	2549
1108	2630
1108	2729
1108	2948
1108	3238
1108	3729
1108	4211
1108	4452
1109	1255
1109	1524
1109	1732
1109	1886
1109	1953
1109	1976
1109	2473
1109	2532
1109	2584
1109	2788
1109	2988
1109	3162
1109	3183
1109	4061
1109	4084
1109	4303
1109	4360
1109	4918
1110	1628
1110	2120
1110	3180
1110	3866
1110	4145
1110	4800
1110	4903
1111	1199
1111	1370
1111	1872
1111	2057
1111	2101
1111	2452
1111	2636
1111	2967
1111	3033
1111	3215
1111	3291
1111	3757
1112	1427
1112	1618
1112	1893
1112	2006
1112	2777
1112	2786
1112	3110
1112	3228
1112	3447
1112	4561
1112	4646
1112	4984
1112	4999
1113	1454
1113	2519
1113	2966
1113	3256
1113	4024
1113	4068
1113	4287
1113	4963
1114	1386
1114	1445
1114	1450
1114	1490
1114	1520
1114	1626
1114	1774
1114	1823
1114	1827
1114	1964
1114	2021
1114	2187
1114	2278
1114	2691
1114	2871
1114	2939
1114	2985
1114	3030
1114	3264
1114	4065
1114	4131
1114	4249
1114	4444
1114	4735
1114	4986
1114	4995
1115	1335
1115	1697
1115	1788
1115	1843
1115	1944
1115	2331
1115	2545
1115	3105
1115	3439
1115	4249
1116	1588
1116	1811
1116	2214
1116	2702
1116	3031
1116	3844
1116	4901
1117	1315
1117	1422
1117	1650
1117	1816
1117	2115
1117	2475
1117	2706
1117	2708
1117	2894
1117	3313
1117	3329
1117	3817
1117	3892
1117	3907
1117	4062
1117	4284
1117	4294
1118	1311
1118	1390
1118	1456
1118	1758
1118	1850
1118	1852
1118	2246
1118	2511
1118	2920
1118	3157
1118	3408
1118	3706
1118	3838
1118	4155
1118	4976
1119	1355
1119	1478
1119	1552
1119	1599
1119	1628
1119	1694
1119	1774
1119	1806
1119	2091
1119	2197
1119	2214
1119	2247
1119	2251
1119	2405
1119	2478
1119	2526
1119	2585
1119	2859
1119	2860
1119	2868
1119	2896
1119	2967
1119	3529
1119	3566
1119	3575
1119	3601
1119	3775
1119	3799
1119	3932
1119	3936
1119	4188
1119	4397
1119	4728
1119	4852
1119	4935
1120	1962
1120	1970
1120	2604
1120	2831
1120	2841
1120	2892
1120	3117
1120	3167
1120	3455
1120	3560
1120	4018
1120	4556
1121	1161
1121	1236
1121	1435
1121	1779
1121	1982
1121	2113
1121	2315
1121	2384
1121	2851
1121	2895
1121	2986
1121	3252
1121	3737
1121	3798
1121	3937
1121	4671
1121	4991
1122	1204
1122	1302
1122	1600
1122	1736
1122	1859
1122	2029
1122	2099
1122	2303
1122	2425
1122	2536
1122	2735
1122	2815
1122	3324
1122	3397
1122	4552
1122	4857
1123	1160
1123	1222
1123	1353
1123	1493
1123	1608
1123	1878
1123	2258
1123	2302
1123	2305
1123	2381
1123	2397
1123	2566
1123	2582
1123	3475
1123	3788
1123	4063
1123	4206
1123	4816
1123	4898
1123	4931
1123	4964
1124	1464
1124	1536
1124	1630
1124	1688
1124	1828
1124	1859
1124	2022
1124	2117
1124	2345
1124	3177
1124	3327
1124	3446
1124	3774
1124	4351
1125	1132
1125	1296
1125	1373
1125	1405
1125	1515
1125	1555
1125	1607
1125	1967
1125	2350
1125	2496
1125	2531
1125	3156
1125	3479
1125	3704
1125	3705
1125	3721
1125	3822
1125	4350
1125	4467
1125	4949
1126	1242
1126	1250
1126	1328
1126	1333
1126	1334
1126	1550
1126	1865
1126	1914
1126	2196
1126	2360
1126	2462
1126	2543
1126	2999
1126	3599
1126	3886
1126	4062
1127	1711
1127	1747
1127	1994
1127	2503
1127	2569
1127	2962
1127	3158
1127	3165
1127	3198
1127	3227
1127	3344
1127	3452
1127	3802
1127	4025
1127	4153
1127	4259
1127	4298
1127	4837
1128	1207
1128	1417
1128	1723
1128	2011
1128	2130
1128	2389
1128	2652
1128	2668
1128	2932
1128	3021
1128	3243
1128	3439
1128	3509
1128	3637
1128	3642
1128	4056
1128	4077
1128	4093
1128	4157
1128	4329
1128	4638
1129	1179
1129	1206
1129	1263
1129	1344
1129	1369
1129	1466
1129	1750
1129	2083
1129	2674
1129	2699
1129	2892
1129	4324
1129	4760
1130	1263
1130	1748
1130	2016
1130	2248
1130	2311
1130	2552
1130	2601
1130	2777
1130	3025
1130	3056
1130	3596
1130	3597
1130	3732
1130	3753
1130	3790
1130	3835
1130	4368
1131	1183
1131	1215
1131	1720
1131	2174
1131	2201
1131	2213
1131	3011
1131	3073
1131	3291
1131	3427
1131	3458
1131	3502
1131	3811
1131	3845
1131	3923
1131	4667
1131	4813
1132	1176
1132	1304
1132	1426
1132	1844
1132	2012
1132	2337
1132	2702
1132	2771
1132	2794
1132	2862
1132	3019
1132	3339
1132	3612
1132	3806
1132	4833
1133	1353
1133	1477
1133	1526
1133	2139
1133	2454
1133	2534
1133	2593
1133	3102
1133	3256
1133	3274
1133	3368
1133	3394
1133	3459
1133	3467
1133	3594
1133	3648
1133	3879
1133	4010
1133	4111
1133	4443
1133	4759
1134	1155
1134	1235
1134	1458
1134	1568
1134	1651
1134	1699
1134	1871
1134	1987
1134	1989
1134	2014
1134	2164
1134	2294
1134	2466
1134	2496
1134	2547
1134	2739
1134	2951
1134	2976
1134	3066
1134	3074
1134	3235
1134	3499
1134	4142
1134	4355
1134	4379
1134	4784
1134	4785
1134	4893
1135	1310
1135	1417
1135	1419
1135	1542
1135	1663
1135	1753
1135	1904
1135	2254
1135	2349
1135	2562
1135	2983
1135	3328
1135	3507
1135	3808
1135	3944
1135	3953
1135	4090
1135	4158
1135	4506
1135	4693
1136	1153
1136	1208
1136	1212
1136	1345
1136	1602
1136	1910
1136	1973
1136	1976
1136	1999
1136	2376
1136	2627
1136	3258
1136	3444
1136	3495
1136	3801
1136	4204
1136	4293
1136	4677
1137	1238
1137	1335
1137	1449
1137	1516
1137	2259
1137	2396
1137	2695
1137	2943
1137	3236
1137	3335
1137	4953
1138	1387
1138	1459
1138	1614
1138	2000
1138	2331
1138	2342
1138	2357
1138	2481
1138	2535
1138	2569
1138	2646
1138	2770
1138	2851
1138	2960
1138	2997
1138	3016
1138	3167
1138	3195
1138	3469
1138	3566
1138	3576
1138	3846
1138	3849
1138	4025
1138	4223
1138	4254
1138	4460
1138	4601
1138	4720
1138	4750
1138	4881
1138	4907
1139	1249
1139	1642
1139	1894
1139	2907
1139	3040
1139	3438
1139	3552
1139	3912
1139	4063
1139	4065
1139	4372
1139	4432
1139	4462
1139	4641
1139	4811
1140	1347
1140	1374
1140	1415
1140	1979
1140	2084
1140	2467
1140	2768
1140	2800
1140	3115
1140	4099
1140	4734
1141	1303
1141	1432
1141	1848
1141	2412
1141	2475
1141	2543
1141	2631
1141	2634
1141	2676
1141	3498
1141	3888
1141	4021
1141	4269
1141	4467
1141	4491
1141	4801
1142	1404
1142	1446
1142	1727
1142	1786
1142	1878
1142	1942
1142	1957
1142	2002
1142	2039
1142	2198
1142	2302
1142	2481
1142	2523
1142	2601
1142	2669
1142	2686
1142	2702
1142	2933
1142	3273
1142	3976
1142	4059
1142	4182
1142	4768
1142	4988
1143	1200
1143	1427
1143	1481
1143	1515
1143	1671
1143	2211
1143	2239
1143	2546
1143	2719
1143	2817
1143	3460
1143	3466
1143	3567
1143	3784
1143	3790
1143	3804
1143	3935
1143	4192
1143	4224
1143	4570
1143	4812
1143	4878
1144	1225
1144	1446
1144	1462
1144	2031
1144	2055
1144	2292
1144	2395
1144	2417
1144	2936
1144	2969
1144	3191
1144	3558
1144	4384
1144	4727
1144	4846
1144	4935
1145	1212
1145	1854
1145	1876
1145	2249
1145	2511
1145	2877
1145	3129
1145	3200
1145	3234
1145	4358
1145	4396
1146	1547
1146	2187
1146	2307
1146	3653
1146	4237
1147	1386
1147	1581
1147	1607
1147	1901
1147	2020
1147	2503
1147	2722
1147	2891
1147	2918
1147	4029
1147	4327
1147	4777
1147	4911
1148	1362
1148	1385
1148	1641
1148	1726
1148	2242
1148	2261
1148	2299
1148	2451
1148	2709
1148	3007
1148	3385
1148	4091
1148	4449
1148	4886
1149	1321
1149	1346
1149	1591
1149	1854
1149	2830
1149	3223
1149	3587
1149	3713
1149	3757
1149	3835
1149	4027
1149	4948
1150	1330
1150	1373
1150	1673
1150	1706
1150	2000
1150	2136
1150	3282
1150	4086
1150	4766
1151	1153
1151	1293
1151	1321
1151	1592
1151	2228
1151	2309
1151	2372
1151	2438
1151	2561
1151	2603
1151	3413
1151	3500
1151	3609
1151	4506
1152	1619
1152	2105
1152	2823
1152	3790
1152	3818
1152	4077
1152	4138
1152	4182
1152	4310
1153	1209
1153	1663
1153	1689
1153	3110
1153	3324
1153	3346
1153	3373
1153	3874
1153	3957
1153	4020
1153	4280
1154	1307
1154	1337
1154	1352
1154	1372
1154	2294
1154	2533
1154	2614
1154	2855
1154	3094
1154	3408
1154	3662
1154	3858
1154	4359
1155	1264
1155	1301
1155	1327
1155	1466
1155	1513
1155	1549
1155	1876
1155	1978
1155	2278
1155	2315
1155	2740
1155	2776
1155	2880
1155	3032
1155	3278
1155	3329
1155	3491
1155	3589
1155	3639
1155	3673
1155	3706
1155	3935
1155	4564
1155	4830
1155	4845
1155	4996
1156	1632
1156	1697
1156	1735
1156	1764
1156	1772
1156	1852
1156	1969
1156	1983
1156	1999
1156	2179
1156	2602
1156	2671
1156	2702
1156	2722
1156	2871
1156	2906
1156	3055
1156	3141
1156	3950
1156	4021
1156	4129
1156	4310
1156	4359
1156	4670
1156	4877
1157	1193
1157	1354
1157	1565
1157	1676
1157	2226
1157	2704
1157	2714
1157	3338
1157	4521
1157	4620
1158	1172
1158	1232
1158	1358
1158	2455
1158	2479
1158	2574
1158	2750
1158	2860
1158	3025
1158	3272
1158	3436
1158	3584
1158	3738
1158	4062
1158	4175
1158	4176
1158	4292
1158	4423
1158	4843
1159	1221
1159	1340
1159	1488
1159	1588
1159	2194
1159	2586
1159	2692
1159	2760
1159	3339
1159	3711
1159	3888
1159	3926
1159	4085
1159	4123
1159	4328
1159	4584
1159	4903
1160	1206
1160	1315
1160	1323
1160	1356
1160	1365
1160	1459
1160	1486
1160	1513
1160	1575
1160	1619
1160	1891
1160	2060
1160	2308
1160	2365
1160	2376
1160	2448
1160	2553
1160	2637
1160	2666
1160	2676
1160	2791
1160	3054
1160	3079
1160	3115
1160	3126
1160	4190
1160	4781
1160	4792
1161	1231
1161	1269
1161	1411
1161	1518
1161	1749
1161	1790
1161	2010
1161	2219
1161	2316
1161	2356
1161	2359
1161	2415
1161	2517
1161	2537
1161	2709
1161	2821
1161	3291
1161	3333
1161	3924
1161	3954
1161	3983
1161	4116
1161	4309
1161	4667
1161	4818
1161	4834
1162	2146
1162	2458
1162	3500
1162	3612
1162	4116
1162	4163
1162	4863
1163	1305
1163	1317
1163	1374
1163	1578
1163	1706
1163	1755
1163	1977
1163	2472
1163	2932
1163	3288
1163	3525
1163	3773
1163	4299
1163	4383
1164	1312
1164	1313
1164	1976
1164	2264
1164	2780
1164	3361
1164	3367
1164	3474
1164	4077
1164	4266
1164	4807
1165	1241
1165	1367
1165	1623
1165	2308
1165	2438
1165	2578
1165	3209
1165	3578
1165	3971
1166	1428
1166	1827
1166	2453
1166	2675
1166	2732
1166	4281
1166	4697
1167	1274
1167	1459
1167	1724
1167	1873
1167	2108
1167	2203
1167	2215
1167	2368
1167	2722
1167	3422
1167	3484
1167	3912
1167	4155
1167	4275
1167	4450
1168	1407
1168	1676
1168	1755
1168	1785
1168	2213
1168	2369
1168	2387
1168	2391
1168	2655
1168	2701
1168	3231
1168	3450
1168	3706
1168	4020
1168	4875
1169	1306
1169	1325
1169	1333
1169	1876
1169	2297
1169	2694
1169	2882
1169	3039
1169	3264
1169	4749
1169	4910
1170	1392
1170	1472
1170	1532
1170	1542
1170	1546
1170	1575
1170	1659
1170	1675
1170	1722
1170	1788
1170	2572
1170	2892
1170	3201
1170	3297
1170	3589
1170	3852
1170	4161
1170	4325
1170	4333
1170	4418
1170	4886
1171	1280
1171	1626
1171	2004
1171	2743
1171	2886
1171	3877
1171	3969
1171	4093
1171	4133
1171	4136
1171	4144
1172	1283
1172	1303
1172	1318
1172	1489
1172	1661
1172	1784
1172	1989
1172	2304
1172	2905
1172	2958
1172	3027
1172	3134
1172	3381
1172	3674
1172	3866
1172	3928
1172	4386
1172	4432
1172	4777
1172	4853
1172	4900
1172	4943
1173	1206
1173	1311
1173	1439
1173	1566
1173	1827
1173	1870
1173	1880
1173	1894
1173	1996
1173	2003
1173	2531
1173	2656
1173	2667
1173	2686
1173	3078
1173	3194
1173	3221
1173	3253
1173	3362
1173	3402
1173	3533
1173	3590
1173	3656
1173	3850
1173	4216
1173	4587
1173	4645
1173	4760
1174	1225
1174	1256
1174	1269
1174	1293
1174	1409
1174	1523
1174	1540
1174	1602
1174	1617
1174	1649
1174	1684
1174	1737
1174	1933
1174	1985
1174	2191
1174	2519
1174	2775
1174	3028
1174	3703
1174	3988
1174	4331
1174	4337
1174	4599
1175	1670
1175	2354
1175	2809
1175	3264
1175	4823
1175	4917
1176	1457
1176	1621
1176	1623
1176	1631
1176	1928
1176	2154
1176	2418
1176	2518
1176	2536
1176	2568
1176	2937
1176	3274
1176	3709
1176	3879
1176	4047
1176	4325
1176	4363
1176	4364
1176	4527
1177	1355
1177	1449
1177	1669
1177	1742
1177	2194
1177	3156
1177	3278
1177	3449
1177	4497
1177	4556
1177	4623
1178	1211
1178	1359
1178	1428
1178	1681
1178	1834
1178	1887
1178	2716
1178	3026
1178	3031
1178	3154
1178	3500
1178	3695
1178	3955
1178	4116
1178	4463
1178	4815
1178	4829
1179	1580
1179	1634
1179	1641
1179	1830
1179	1834
1179	3022
1179	3420
1179	3994
1180	1228
1180	1295
1180	1340
1180	1486
1180	1641
1180	1706
1180	1778
1180	1850
1180	1973
1180	2017
1180	2106
1180	2427
1180	2430
1180	2502
1180	2513
1180	2541
1180	2859
1180	3067
1180	3087
1180	3292
1180	3742
1180	3833
1180	3868
1180	3987
1180	4221
1180	4323
1180	4403
1180	4414
1180	4483
1180	4601
1180	4800
1181	1259
1181	1344
1181	1539
1181	1554
1181	1627
1181	1694
1181	1920
1181	2068
1181	2350
1181	2609
1181	2636
1181	2967
1181	3718
1181	3922
1181	3927
1181	4728
1181	4954
1182	1262
1182	1427
1182	1644
1182	1910
1182	1929
1182	1931
1182	2143
1182	2157
1182	2225
1182	2329
1182	2347
1182	2737
1182	2753
1182	2782
1182	3530
1182	3587
1182	4008
1182	4303
1182	4521
1183	1287
1183	1387
1183	1419
1183	1457
1183	1515
1183	1637
1183	1664
1183	1682
1183	1840
1183	1955
1183	2101
1183	2318
1183	2544
1183	3222
1183	3234
1183	3320
1183	3396
1183	3428
1183	3549
1183	3715
1183	3934
1183	4277
1183	4284
1183	4393
1183	4668
1183	4858
1183	4909
1184	1295
1184	1514
1184	1535
1184	1690
1184	1766
1184	1868
1184	2051
1184	2168
1184	2203
1184	2263
1184	2275
1184	2459
1184	2859
1184	3019
1184	3218
1184	3599
1184	3808
1184	4764
1185	1719
1185	2040
1185	2053
1185	2058
1185	3016
1185	3694
1185	3955
1185	3985
1185	4947
1186	1641
1186	1677
1186	1979
1186	2086
1186	2120
1186	2342
1186	3077
1186	3100
1186	3519
1186	3710
1186	4400
1186	4715
1186	4954
1187	1288
1187	1446
1187	1599
1187	1744
1187	1755
1187	2283
1187	2301
1187	2416
1187	3256
1187	3388
1187	3399
1187	3481
1187	3498
1187	3568
1187	3893
1187	4042
1187	4202
1187	4854
1188	1214
1188	1452
1188	1506
1188	1522
1188	1618
1188	1813
1188	2024
1188	2409
1188	2567
1188	2593
1188	2775
1188	2928
1188	3034
1188	3399
1188	3567
1188	3749
1188	3761
1188	4236
1188	4729
1189	1438
1189	2027
1189	2146
1189	2618
1189	2737
1189	3101
1189	3213
1189	3665
1189	3836
1189	3988
1189	4016
1189	4147
1189	4249
1190	1433
1190	1615
1190	1617
1190	1632
1190	1773
1190	1913
1190	2236
1190	2404
1190	2987
1190	3176
1190	3192
1190	3422
1190	3460
1190	3691
1190	3799
1190	3901
1190	4073
1190	4251
1190	4620
1190	4891
1190	4996
1191	1677
1191	1836
1191	1870
1191	1872
1191	2196
1191	2604
1191	2638
1191	3136
1191	3431
1191	3904
1191	3919
1191	4103
1191	4199
1191	4280
1192	1197
1192	1296
1192	1300
1192	1318
1192	1350
1192	1420
1192	1625
1192	1702
1192	1735
1192	2118
1192	2163
1192	2606
1192	2733
1192	2797
1192	2852
1192	2951
1192	3203
1192	3314
1192	3365
1192	3410
1192	3459
1192	3787
1192	3877
1192	3904
1192	3967
1192	4585
1192	4623
1192	4869
1193	1397
1193	1606
1193	1644
1193	1824
1193	1917
1193	1918
1193	2228
1193	2402
1193	2607
1193	2774
1193	2831
1193	2958
1193	3075
1193	3126
1193	3214
1193	3230
1193	3231
1193	3663
1193	3699
1193	4133
1193	4173
1193	4210
1193	4278
1193	4391
1193	4932
1194	1301
1194	1420
1194	1471
1194	1717
1194	1899
1194	2015
1194	2537
1194	2681
1194	3430
1194	3468
1194	3945
1194	4994
1195	1416
1195	1460
1195	1630
1195	1674
1195	1711
1195	1718
1195	1920
1195	1990
1195	2127
1195	2414
1195	2522
1195	2607
1195	2726
1195	3008
1195	3107
1195	3338
1195	3430
1195	3950
1195	4020
1195	4421
1195	4702
1196	1288
1196	1433
1196	1507
1196	1634
1196	1645
1196	1803
1196	1923
1196	2004
1196	2194
1196	2209
1196	2791
1196	2921
1196	2986
1196	3145
1196	3629
1196	3645
1196	3912
1196	3928
1196	4002
1196	4204
1196	4277
1196	4307
1196	4663
1196	4678
1196	4819
1196	4840
1196	4980
1197	1207
1197	1231
1197	1271
1197	1334
1197	1369
1197	1648
1197	1827
1197	2119
1197	2264
1197	2283
1197	2531
1197	2575
1197	2629
1197	2800
1197	2920
1197	2953
1197	3179
1197	3226
1197	3231
1197	3377
1197	3995
1197	4344
1197	4394
1197	4441
1197	4470
1197	4837
1198	1272
1198	1351
1198	1355
1198	1358
1198	1476
1198	1490
1198	1635
1198	1668
1198	1729
1198	1769
1198	1774
1198	1948
1198	2224
1198	2327
1198	2614
1198	2625
1198	2747
1198	2840
1198	2942
1198	3027
1198	3189
1198	3372
1198	3819
1198	4390
1198	4548
1198	4590
1198	4611
1198	4739
1198	4772
1198	4787
1199	1261
1199	1352
1199	1482
1199	1629
1199	1751
1199	1852
1199	2145
1199	2696
1199	3052
1199	3056
1199	3227
1199	3369
1199	3626
1199	3811
1199	4246
1199	4485
1199	4833
1200	1213
1200	1453
1200	1500
1200	1611
1200	1824
1200	1826
1200	2081
1200	2112
1200	2554
1200	2629
1200	2793
1200	3275
1200	3847
1200	3892
1200	4089
1200	4253
1200	4330
1200	4349
1200	4407
1200	4580
1200	4607
1200	4774
1200	4941
1200	4951
1201	1374
1201	1664
1201	1692
1201	1729
1201	1795
1201	1830
1201	1988
1201	2079
1201	2136
1201	2187
1201	2403
1201	2463
1201	2619
1201	2820
1201	4250
1201	4377
1201	4381
1201	4483
1201	4507
1201	4678
1202	1296
1202	1429
1202	1708
1202	2652
1202	2988
1202	3034
1202	3448
1202	3908
1202	4176
1202	4184
1202	4272
1202	4458
1203	2044
1203	2352
1203	2365
1203	2976
1203	3112
1203	3617
1203	3666
1203	3688
1203	3700
1203	4097
1203	4578
1204	1341
1204	1348
1204	1552
1204	1566
1204	1685
1204	1688
1204	1914
1204	2010
1204	2134
1204	2277
1204	2507
1204	2822
1204	2930
1204	3178
1204	3665
1204	3758
1204	4616
1205	1260
1205	1343
1205	1863
1205	1920
1205	1934
1205	2302
1205	2346
1205	2533
1205	2563
1205	2803
1205	2822
1205	2973
1205	3044
1205	4003
1205	4081
1205	4088
1205	4200
1205	4348
1205	4556
1205	4563
1205	4725
1205	4873
1206	1501
1206	1657
1206	1807
1206	2096
1206	2349
1206	4491
1206	4556
1206	4722
1207	1271
1207	1435
1207	1693
1207	1778
1207	1917
1207	1977
1207	2468
1207	2627
1207	2767
1207	2977
1207	3260
1207	3967
1207	4628
1208	1259
1208	1597
1208	1798
1208	1897
1208	2083
1208	2182
1208	2674
1208	3042
1208	3100
1208	3325
1208	3734
1208	3783
1208	3817
1208	3843
1208	3917
1208	3997
1208	4467
1208	4615
1208	4617
1208	4817
1208	4994
1209	1691
1209	1950
1209	2015
1209	2470
1209	2602
1209	2655
1209	2773
1209	2876
1209	2892
1209	2983
1209	3540
1209	3788
1209	3961
1209	4069
1209	4250
1209	4439
1209	4839
1210	1306
1210	2161
1210	2956
1210	4316
1210	4880
1211	1227
1211	1241
1211	1464
1211	2061
1211	2110
1211	2284
1211	2292
1211	2400
1211	2479
1211	2602
1211	2619
1211	2650
1211	2653
1211	3341
1211	3584
1211	3616
1211	3749
1211	4114
1211	4657
1211	4885
1211	4887
1212	1470
1212	1697
1212	2253
1212	2520
1212	2677
1212	2775
1212	2847
1212	3150
1212	3292
1212	3439
1212	3453
1212	3862
1212	3872
1212	3905
1212	4011
1213	1261
1213	2002
1213	2005
1213	2059
1213	2597
1213	2599
1213	3015
1213	4053
1214	1332
1214	2345
1214	2494
1214	2574
1214	3141
1214	3839
1214	4591
1214	4718
1215	1316
1215	1397
1215	1435
1215	1462
1215	1624
1215	1797
1215	2048
1215	2727
1215	2768
1215	3531
1215	3579
1215	3686
1215	3910
1215	3971
1215	3995
1216	1270
1216	1775
1216	1802
1216	2028
1216	2073
1216	2179
1216	2546
1216	2611
1216	2723
1216	2870
1216	2991
1216	3109
1216	3176
1216	3973
1216	3985
1216	4638
1216	4713
1217	1332
1217	1381
1217	1514
1217	1735
1217	1844
1217	2012
1217	2130
1217	2229
1217	2265
1217	3217
1217	3488
1217	3590
1217	3795
1217	3929
1217	4074
1217	4224
1217	4398
1217	4463
1217	4560
1217	4680
1217	4684
1217	4893
1218	1645
1218	1960
1218	2537
1218	3178
1218	3319
1218	3559
1218	3647
1218	4364
1218	4592
1219	1267
1219	1476
1219	1770
1219	2079
1219	2386
1219	2405
1219	3512
1219	3556
1219	3636
1219	4340
1219	4371
1219	4389
1219	4426
1219	4474
1219	4600
1220	1411
1220	1423
1220	2138
1220	3026
1220	3351
1220	3523
1220	3824
1221	1259
1221	1271
1221	1457
1221	1796
1221	1831
1221	2215
1221	2313
1221	2629
1221	2659
1221	2738
1221	2828
1221	3457
1221	3520
1221	3549
1221	4144
1221	4183
1221	4492
1221	4520
1221	4829
1222	1226
1222	1602
1222	1643
1222	1696
1222	1805
1222	1893
1222	2140
1222	2341
1222	2423
1222	2946
1222	3049
1222	3649
1222	4408
1222	4572
1222	4648
1222	4649
1222	4894
1223	1424
1223	1474
1223	1639
1223	1645
1223	1647
1223	2018
1223	2311
1223	2511
1223	2697
1223	2726
1223	2864
1223	3261
1223	3295
1223	3521
1223	3686
1223	4283
1223	4424
1223	4437
1223	4576
1223	4953
1223	4958
1224	1284
1224	1378
1224	1403
1224	1423
1224	1557
1224	1949
1224	2045
1224	2086
1224	2160
1224	2169
1224	2529
1224	2817
1224	3010
1224	3199
1224	4810
1225	1386
1225	1657
1225	2123
1225	2232
1225	2334
1225	2511
1225	2661
1225	2686
1225	2706
1225	3599
1225	3972
1225	4067
1225	4799
1226	1529
1226	1760
1226	1919
1226	2330
1226	2351
1226	2695
1226	3632
1226	3722
1226	3839
1226	4260
1226	4531
1226	4568
1226	4956
1227	1438
1227	1453
1227	1801
1227	1992
1227	2280
1227	2558
1227	2620
1227	2806
1227	3204
1227	3235
1227	3832
1227	4000
1228	1372
1228	1644
1228	1657
1228	1932
1228	1992
1228	2105
1228	2129
1228	2182
1228	2307
1228	2876
1228	2931
1228	3616
1228	3712
1228	3786
1228	4161
1228	4223
1228	4441
1228	4812
1228	4989
1229	1283
1229	1311
1229	1314
1229	1514
1229	1579
1229	1595
1229	1719
1229	1894
1229	2121
1229	2446
1229	2465
1229	2584
1229	2870
1229	2895
1229	2930
1229	2960
1229	3095
1229	3237
1229	3260
1229	3446
1229	3807
1229	4053
1229	4381
1229	4782
1229	4863
1229	4886
1230	1413
1230	1509
1230	2126
1230	2267
1230	2296
1230	2313
1230	2957
1230	3040
1230	3395
1230	3419
1230	3557
1230	3599
1230	3640
1230	3648
1230	3983
1230	4354
1230	4437
1230	4468
1230	4702
1231	1462
1231	1540
1231	2276
1231	2339
1231	2496
1231	2572
1231	2615
1231	4021
1231	4247
1231	4938
1232	1265
1232	1351
1232	1368
1232	1398
1232	1450
1232	1721
1232	1880
1232	1912
1232	1939
1232	2219
1232	2412
1232	2922
1232	2923
1232	3472
1232	3652
1232	4080
1232	4212
1232	4400
1232	4925
1233	1329
1233	1368
1233	1647
1233	2011
1233	2042
1233	2870
1233	3135
1233	3414
1233	3501
1233	4286
1233	4979
1234	1305
1234	1385
1234	1394
1234	1464
1234	1519
1234	1553
1234	1746
1234	1914
1234	1923
1234	2131
1234	2271
1234	2338
1234	2366
1234	2771
1234	2781
1234	3199
1234	3920
1234	4231
1234	4646
1234	4852
1235	1447
1235	1558
1235	1953
1235	2334
1235	2372
1235	2651
1235	2667
1235	3752
1235	3932
1235	3977
1235	4611
1235	4918
1236	2032
1236	2131
1236	2725
1236	2915
1236	4477
1236	4653
1236	4655
1236	4785
1236	4967
1237	1422
1237	1531
1237	1767
1237	2386
1237	2901
1237	3094
1237	3485
1237	3948
1237	4345
1237	4540
1237	4743
1237	4846
1237	4962
1238	1553
1238	1555
1238	1679
1238	1691
1238	1811
1238	1820
1238	2138
1238	2552
1238	2862
1238	3331
1238	3366
1238	3396
1238	3641
1238	3765
1238	4331
1238	4673
1239	1260
1239	1954
1239	2237
1239	3423
1239	4091
1239	4512
1239	4928
1239	4965
1240	1273
1240	1331
1240	1359
1240	1672
1240	1863
1240	1939
1240	2078
1240	2829
1240	2868
1240	2892
1240	3139
1240	3319
1240	3359
1240	3435
1240	3698
1240	3732
1240	3797
1240	3974
1240	4500
1240	4675
1240	4733
1241	1330
1241	1367
1241	1487
1241	1741
1241	2256
1241	2269
1241	2339
1241	2344
1241	2508
1241	2607
1241	2715
1241	3045
1241	3248
1241	3262
1241	3407
1241	3844
1241	4626
1241	4916
1242	1377
1242	1856
1242	2434
1242	2686
1242	3006
1243	1286
1243	1482
1243	1509
1243	1523
1243	1639
1243	1973
1243	2039
1243	2302
1243	2375
1243	2543
1243	2796
1243	3149
1243	3223
1243	3540
1243	4537
1243	4717
1243	4988
1244	1303
1244	1411
1244	1569
1244	1801
1244	2087
1244	2555
1244	3066
1244	3126
1244	3582
1244	3636
1244	3790
1244	3811
1244	4716
1245	1421
1245	2096
1245	2750
1245	3163
1245	3421
1245	3483
1245	3890
1245	3999
1245	4013
1245	4165
1245	4337
1245	4404
1245	4544
1245	4849
1245	4951
1245	4971
1246	1329
1246	2192
1246	2375
1246	2552
1246	2792
1246	3068
1246	3235
1246	3241
1246	3377
1246	3619
1246	4173
1246	4267
1246	4367
1246	4399
1246	4408
1246	4501
1246	4562
1246	4587
1247	1534
1247	1813
1247	2445
1247	2810
1247	3136
1247	3207
1247	3459
1248	2410
1248	2873
1248	3338
1248	3583
1248	3672
1248	3686
1248	3851
1248	4449
1248	4489
1248	4498
1248	4805
1248	4878
1248	4881
1249	1285
1249	1286
1249	1407
1249	1648
1249	1760
1249	3218
1249	3358
1249	3523
1249	4225
1249	4369
1249	4674
1249	4678
1250	1472
1250	1509
1250	1750
1250	1869
1250	2309
1250	3024
1250	3054
1250	3176
1250	3447
1250	4134
1250	4557
1251	1555
1251	1561
1251	2713
1251	2758
1251	2956
1251	3000
1251	3115
1251	4080
1251	4721
1251	4892
1252	1253
1252	1462
1252	1539
1252	1564
1252	1582
1252	1583
1252	1749
1252	1865
1252	2521
1252	2547
1252	2746
1252	2766
1252	3026
1252	3453
1252	3941
1252	4066
1252	4424
1252	4501
1252	4650
1252	4673
1252	4954
1253	1283
1253	1501
1253	1890
1253	1946
1253	2015
1253	2092
1253	2368
1253	3395
1253	4295
1253	4383
1253	4583
1254	1471
1254	1485
1254	1524
1254	1527
1254	2049
1254	2175
1254	2383
1254	2931
1254	3242
1254	3558
1254	3699
1254	3816
1254	3945
1254	4607
1254	4652
1254	4931
1255	1284
1255	1350
1255	1459
1255	1461
1255	2751
1255	2950
1255	3098
1255	3148
1255	3334
1255	3508
1255	3663
1255	3841
1255	4563
1256	1415
1256	1622
1256	1685
1256	1902
1256	1936
1256	1959
1256	2544
1256	2560
1256	2755
1256	2835
1256	3363
1256	3588
1256	3715
1256	3808
1256	4337
1256	4598
1257	1386
1257	1396
1257	1506
1257	1514
1257	1953
1257	2671
1257	2752
1257	2795
1257	2828
1257	2945
1257	3578
1257	3865
1257	4043
1257	4145
1257	4377
1257	4404
1257	4472
1258	1350
1258	1473
1258	1502
1258	1573
1258	1577
1258	1924
1258	2536
1258	2783
1258	2980
1258	2998
1258	3523
1258	4300
1258	4329
1258	4552
1258	4652
1258	4926
1259	1832
1259	1884
1259	2166
1259	2270
1259	2710
1259	3132
1259	3532
1259	3642
1259	3712
1259	4187
1260	1503
1260	1525
1260	1846
1260	1901
1260	2096
1260	2113
1260	2613
1260	2648
1260	3423
1260	3626
1260	3988
1260	4576
1261	1350
1261	1757
1261	1969
1261	2598
1261	2650
1261	3225
1261	3242
1261	3569
1261	3789
1261	4198
1261	4380
1261	4511
1261	4704
1262	1378
1262	1419
1262	1441
1262	1502
1262	1661
1262	1708
1262	1722
1262	1819
1262	1854
1262	2093
1262	2277
1262	2652
1262	3659
1262	4099
1262	4179
1262	4405
1262	4518
1262	4982
1263	1290
1263	1417
1263	1475
1263	1564
1263	1567
1263	1727
1263	1882
1263	2313
1263	2899
1263	3096
1263	3334
1264	1323
1264	1945
1264	2134
1264	2529
1264	2646
1264	3022
1264	3289
1264	3875
1264	4622
1264	4982
1265	1346
1265	1359
1265	1623
1265	1628
1265	1803
1265	1839
1265	1846
1265	1860
1265	1991
1265	2071
1265	2091
1265	2580
1265	2632
1265	2643
1265	2826
1265	3049
1265	3125
1265	3234
1265	3317
1265	3628
1265	3741
1265	4126
1265	4443
1265	4633
1265	4647
1266	1332
1266	1486
1266	1662
1266	1994
1266	2264
1266	2564
1266	2919
1266	3080
1266	3170
1266	3203
1266	4210
1266	4251
1266	4284
1266	4441
1266	4653
1266	4679
1266	4829
1267	1342
1267	1601
1267	1681
1267	1832
1267	2531
1267	3122
1267	4158
1267	4388
1267	4396
1267	4647
1268	1388
1268	1427
1268	1485
1268	1615
1268	1682
1268	1981
1268	2087
1268	2114
1268	2448
1268	2720
1268	3109
1268	3476
1268	3608
1268	3731
1268	3886
1268	4330
1268	4345
1268	4479
1268	4673
1269	1283
1269	1482
1269	1675
1269	1704
1269	1936
1269	1969
1269	2806
1269	3521
1269	3536
1269	3643
1269	3730
1269	3968
1269	4762
1270	1578
1270	1636
1270	1734
1270	1752
1270	1835
1270	1899
1270	2394
1270	2478
1270	2497
1270	2585
1270	2778
1270	2795
1270	4999
1271	1623
1271	1693
1271	1956
1271	2678
1272	1289
1272	1310
1272	1428
1272	1536
1272	1681
1272	1733
1272	1933
1272	1992
1272	2133
1272	2551
1272	2746
1272	2761
1272	2889
1272	2900
1272	2965
1272	3102
1272	3154
1272	3288
1272	3467
1272	3628
1272	3929
1272	4034
1272	4186
1272	4209
1272	4286
1272	4397
1273	1562
1273	1930
1273	2171
1273	2188
1273	2685
1273	2751
1273	2961
1273	3316
1273	3663
1273	4250
1273	4522
1274	1276
1274	1380
1274	1566
1274	1669
1274	1929
1274	2079
1274	2231
1274	3285
1274	3414
1274	3992
1274	3998
1274	4752
1275	1388
1275	1678
1275	1729
1275	1796
1275	2194
1275	2350
1275	3077
1275	3278
1275	4665
1275	4881
1276	1381
1276	1383
1276	1502
1276	1800
1276	2109
1276	2167
1276	3028
1276	3232
1276	3310
1276	3522
1276	3804
1276	3920
1276	3932
1276	3954
1276	4196
1276	4382
1276	4633
1276	4639
1277	1462
1277	1479
1277	1677
1277	1771
1277	2088
1277	2186
1277	2213
1277	2541
1277	2646
1277	3558
1277	3851
1277	3945
1277	3994
1277	4237
1277	4494
1277	4502
1277	4514
1277	4662
1278	1422
1278	1796
1278	1991
1278	2175
1278	2972
1278	3208
1278	3451
1278	3600
1278	3680
1278	3827
1278	4135
1278	4453
1279	1499
1279	1692
1279	2388
1279	2455
1279	2936
1279	3146
1279	3195
1279	3345
1279	3490
1279	3531
1279	3719
1279	3963
1279	4052
1279	4879
1280	1588
1280	1637
1280	1871
1280	1878
1280	2155
1280	2921
1280	3174
1280	3353
1280	3500
1281	1814
1281	1873
1281	2389
1281	2784
1281	4170
1282	1440
1282	1865
1282	2054
1282	2221
1282	2283
1282	2497
1282	2834
1282	3002
1282	3122
1282	3285
1282	3546
1282	4460
1282	4545
1282	4619
1282	4819
1282	4934
1283	1326
1283	1811
1283	1834
1283	1949
1283	2023
1283	2436
1283	2570
1283	2587
1283	2677
1283	2711
1283	2777
1283	2816
1283	3051
1283	3296
1283	3367
1283	3793
1283	3814
1283	4973
1284	1526
1284	1865
1284	2462
1284	2490
1284	3206
1284	3221
1284	3247
1284	3313
1284	3392
1284	3854
1284	4299
1284	4581
1284	4612
1285	1435
1285	1595
1285	1863
1285	2076
1285	2153
1285	2226
1285	2353
1285	2360
1285	2599
1285	2836
1285	2970
1285	3386
1285	3862
1285	4348
1286	1383
1286	1506
1286	2341
1286	2374
1286	2445
1286	2530
1286	2738
1286	2830
1286	2994
1286	3359
1286	3439
1286	3486
1286	3790
1286	4041
1286	4340
1287	1379
1287	1580
1287	1589
1287	1826
1287	2049
1287	2081
1287	2197
1287	2728
1287	2917
1287	3979
1287	4137
1287	4283
1288	2011
1288	2034
1288	2056
1288	2104
1288	3474
1288	3586
1288	3639
1288	4066
1288	4731
1288	4739
1289	1368
1289	1396
1289	1399
1289	1538
1289	1603
1289	1947
1289	2247
1289	2401
1289	2506
1289	2544
1289	3067
1289	3209
1289	3757
1289	3764
1289	3805
1289	3863
1289	4096
1289	4528
1289	4981
1290	1991
1290	2253
1290	2518
1290	2904
1290	3316
1290	4129
1290	4307
1290	4430
1290	4735
1291	1521
1291	1658
1291	1681
1291	1717
1291	1765
1291	1797
1291	1829
1291	1995
1291	2049
1291	2174
1291	2314
1291	2643
1291	2745
1291	3145
1291	3170
1291	3186
1291	3469
1291	4109
1291	4476
1292	1600
1292	2143
1292	2206
1292	3234
1292	3271
1292	3591
1292	3830
1292	4384
1292	4388
1292	4938
1293	1890
1293	2149
1293	2651
1293	2784
1293	2924
1293	3159
1293	3395
1293	3961
1294	1299
1294	1669
1294	1973
1294	2164
1294	3322
1294	3344
1294	3407
1294	3439
1294	3500
1294	3521
1294	3888
1294	3938
1294	4295
1294	4892
1295	1371
1295	1459
1295	1806
1295	1968
1295	2150
1295	2425
1295	2555
1295	2571
1295	2584
1295	2598
1295	2614
1295	3676
1295	3692
1295	4060
1295	4812
1295	4895
1295	4944
1295	4946
1296	1533
1296	1754
1296	1755
1296	1792
1296	1811
1296	1934
1296	2048
1296	2324
1296	2635
1296	2721
1296	2734
1296	3048
1296	3181
1296	3408
1296	3466
1296	3473
1296	3503
1296	3690
1296	3773
1296	3788
1296	3918
1296	4094
1296	4262
1296	4333
1296	4523
1296	4608
1296	4817
1296	4818
1297	1312
1297	2067
1297	3538
1297	4338
1298	1334
1298	1418
1298	1477
1298	1603
1298	1668
1298	1669
1298	1714
1298	1934
1298	2138
1298	2155
1298	2359
1298	2535
1298	3113
1298	3117
1298	3118
1298	3170
1298	3388
1298	3439
1298	3511
1298	3632
1298	3635
1298	3975
1298	4196
1298	4272
1298	4412
1298	4938
1299	1496
1299	1622
1299	1766
1299	1805
1299	1815
1299	1883
1299	2288
1299	2351
1299	2982
1299	2997
1299	3198
1299	3328
1299	4053
1299	4218
1299	4651
1299	4931
1300	1348
1300	1410
1300	1514
1300	1537
1300	1918
1300	2090
1300	2174
1300	2265
1300	2332
1300	2663
1300	2863
1300	3266
1300	3561
1300	3779
1300	4001
1300	4273
1300	4330
1300	4592
1300	4657
1300	4849
1301	1345
1301	1361
1301	1577
1301	1652
1301	1831
1301	2698
1301	2747
1301	3274
1301	3482
1301	3824
1301	3934
1301	4115
1301	4316
1301	4348
1301	4674
1301	4692
1302	1730
1302	1825
1302	2018
1302	2552
1302	2891
1302	3424
1302	3874
1302	4180
1302	4255
1302	4381
1302	4855
1303	1498
1303	1850
1303	1892
1303	2491
1303	2504
1303	2645
1303	3467
1303	3583
1303	3995
1303	4034
1303	4271
1303	4533
1303	4905
1304	1332
1304	1413
1304	1421
1304	1972
1304	2003
1304	2098
1304	2149
1304	2208
1304	2294
1304	2322
1304	2329
1304	2663
1304	2980
1304	3108
1304	3842
1304	4597
1305	1399
1305	1562
1305	1908
1305	2039
1305	2114
1305	2581
1305	2690
1305	2783
1305	3411
1305	3424
1305	3462
1305	3692
1305	3703
1305	3894
1305	4058
1305	4319
1305	4475
1305	4871
1306	1395
1306	1473
1306	1612
1306	1789
1306	1822
1306	1868
1306	2098
1306	2948
1306	3070
1306	3163
1306	3197
1306	3283
1306	3320
1306	3335
1306	3411
1306	3440
1306	3707
1306	3867
1306	4524
1306	4880
1306	4985
1307	1367
1307	1836
1307	2102
1307	2276
1307	2457
1307	2581
1307	2919
1307	3450
1307	4185
1307	4740
1307	4948
1307	4954
1308	1476
1308	1647
1308	1673
1308	1680
1308	1759
1308	1779
1308	1857
1308	1879
1308	2088
1308	2126
1308	2736
1308	3260
1308	3330
1308	3571
1308	3956
1308	4241
1308	4621
1309	1404
1309	1598
1309	2226
1309	2696
1309	3622
1309	3687
1309	4235
1310	1485
1310	1519
1310	1571
1310	1636
1310	1819
1310	1913
1310	2283
1310	2664
1310	2789
1310	3206
1310	3246
1310	3703
1310	3715
1310	4034
1310	4570
1310	4844
1311	1358
1311	1484
1311	1510
1311	1574
1311	1622
1311	2013
1311	2265
1311	2323
1311	2414
1311	2518
1311	2653
1311	2758
1311	2792
1311	2925
1311	3323
1311	3460
1311	3542
1311	3624
1311	3641
1311	3843
1311	3948
1311	4249
1311	4733
1312	1351
1312	1439
1312	1492
1312	1500
1312	1529
1312	1623
1312	1832
1312	1926
1312	2022
1312	2229
1312	2412
1312	2572
1312	3026
1312	3535
1312	3676
1312	3789
1312	3863
1312	3882
1312	3958
1312	4090
1312	4327
1312	4658
1312	4795
1312	4842
1312	4853
1313	1433
1313	1670
1313	1688
1313	1707
1313	2837
1313	4002
1313	4243
1313	4907
1313	4937
1314	1497
1314	1521
1314	1584
1314	1645
1314	1808
1314	1968
1314	2078
1314	2485
1314	2541
1314	2753
1314	2772
1314	2850
1314	2956
1314	3263
1314	3353
1314	3496
1314	3536
1314	3939
1314	4202
1314	4433
1314	4680
1315	1417
1315	1447
1315	1792
1315	2122
1315	2512
1315	2643
1315	3014
1315	3242
1315	3661
1315	3871
1315	4080
1315	4106
1315	4407
1315	4726
1316	1384
1316	1437
1316	1511
1316	1536
1316	1620
1316	1655
1316	2017
1316	2839
1316	3089
1316	3967
1316	3987
1316	4218
1316	4222
1316	4902
1317	1338
1317	1395
1317	1647
1317	1736
1317	1991
1317	2049
1317	2133
1317	2265
1317	2656
1317	3270
1317	3433
1317	3735
1317	3786
1317	4306
1317	4482
1317	4712
1317	4740
1318	1464
1318	1730
1318	2110
1318	2354
1318	2377
1318	3269
1318	3693
1318	3995
1318	4085
1318	4254
1318	4380
1318	4998
1319	1651
1319	1654
1319	1734
1319	1971
1319	2112
1319	2177
1319	3835
1319	4198
1319	4392
1319	4534
1319	4717
1320	1609
1320	1860
1320	1908
1320	2070
1320	2215
1320	2348
1320	2388
1320	2561
1320	3005
1320	3185
1321	1352
1321	1460
1321	1522
1321	1603
1321	1604
1321	1970
1321	2500
1321	2941
1321	3129
1321	3832
1321	4928
1322	1764
1322	1780
1322	1970
1322	2498
1322	2578
1322	2581
1322	2705
1322	2909
1322	3028
1322	3450
1322	3575
1322	3980
1322	4314
1322	4419
1322	4496
1322	4648
1323	1363
1323	1399
1323	1436
1323	1875
1323	2559
1323	2826
1323	3258
1323	3593
1323	4514
1323	4793
1323	4992
1324	1439
1324	1685
1324	1896
1324	1923
1324	1979
1324	2118
1324	2119
1324	2205
1324	2376
1324	2868
1324	3155
1324	3611
1324	3965
1324	4076
1324	4700
1324	4731
1325	1422
1325	1493
1325	1502
1325	1631
1325	1931
1325	2023
1325	2093
1325	2147
1325	2345
1325	2424
1325	2753
1325	2788
1325	2801
1325	2888
1325	2929
1325	3292
1325	3624
1325	4557
1325	4628
1325	4692
1325	4846
1326	1335
1326	1889
1326	1996
1326	2097
1326	2181
1326	2452
1326	2582
1326	3028
1326	3118
1326	4491
1326	4592
1326	4762
1327	1494
1327	1548
1327	1663
1327	1717
1327	1892
1327	2331
1327	2401
1327	2460
1327	2648
1327	2689
1327	3130
1327	3268
1327	3750
1327	3805
1327	3875
1327	4132
1327	4588
1327	4820
1328	1650
1328	2031
1328	2298
1328	2452
1328	2547
1328	2581
1328	2620
1328	2818
1328	3135
1328	3211
1328	3562
1328	3659
1328	3681
1328	3843
1328	3896
1328	3930
1328	3977
1328	4014
1328	4119
1328	4733
1328	4865
1329	1339
1329	1428
1329	1565
1329	1643
1329	1946
1329	2026
1329	2220
1329	2371
1329	2745
1329	2870
1329	3305
1329	3319
1329	3474
1329	4158
1329	4422
1329	4787
1329	4958
1329	4990
1330	1331
1330	1637
1330	1915
1330	2011
1330	2100
1330	2260
1330	2420
1330	2421
1330	2545
1330	2570
1330	2757
1330	2819
1330	3649
1330	3661
1330	3902
1330	4167
1330	4242
1331	1457
1331	1512
1331	1716
1331	2135
1331	2358
1331	2737
1331	2827
1331	3060
1331	3642
1331	3875
1331	4179
1331	4493
1331	4553
1331	4762
1331	4826
1331	4934
1331	4980
1332	1477
1332	1893
1332	1895
1332	3326
1332	3418
1332	3596
1332	4444
1332	4484
1333	1383
1333	1443
1333	1788
1333	1802
1333	1953
1333	2153
1333	2234
1333	2266
1333	2671
1333	2819
1333	2826
1333	3876
1334	1546
1334	1732
1334	1917
1334	2149
1334	2152
1334	2589
1334	2841
1334	3216
1334	3877
1334	4288
1334	4828
1335	1527
1335	1611
1335	1668
1335	1752
1335	1958
1335	2113
1335	2287
1335	2472
1335	2769
1335	2799
1335	2958
1335	3199
1335	4050
1335	4067
1335	4179
1335	4675
1335	4894
1335	4953
1336	1367
1336	1699
1336	1913
1336	1923
1336	1938
1336	2147
1336	2585
1336	2697
1336	2929
1336	3035
1336	3073
1336	4267
1336	4634
1337	1353
1337	1579
1337	1822
1337	1833
1337	2070
1337	2411
1337	2429
1337	2451
1337	2660
1337	2734
1337	2837
1337	3088
1337	3143
1337	3436
1337	3813
1337	4248
1337	4265
1337	4316
1337	4442
1337	4714
1338	2122
1338	2353
1338	2451
1338	2466
1338	2476
1338	2654
1338	2726
1338	2818
1338	3041
1338	3317
1338	3387
1338	3457
1338	3509
1338	4533
1338	4955
1339	1346
1339	2000
1339	2468
1339	3072
1339	3225
1339	3437
1339	3542
1339	3799
1339	4387
1340	1408
1340	1471
1340	1694
1340	2384
1340	2387
1340	2468
1340	2621
1340	2646
1340	2864
1340	2982
1340	3078
1340	3103
1340	3220
1340	3780
1340	4755
1340	4857
1341	1555
1341	1788
1341	1870
1341	1949
1341	1991
1341	2440
1341	2916
1341	3094
1341	3555
1341	4054
1341	4260
1341	4421
1342	1637
1342	2050
1342	2136
1342	2233
1342	2261
1342	2532
1342	3636
1342	4038
1342	4287
1342	4293
1342	4327
1342	4519
1342	4806
1343	1443
1343	1640
1343	1911
1343	1935
1343	2117
1343	2199
1343	2500
1343	2533
1343	2985
1343	3083
1343	3306
1343	3545
1343	3618
1343	4316
1343	4712
1343	4969
1343	4984
1344	1390
1344	1442
1344	1515
1344	1630
1344	1902
1344	1990
1344	1999
1344	2413
1344	2439
1344	2815
1344	3322
1344	3393
1344	3416
1344	3579
1344	3680
1344	4069
1344	4902
1345	1674
1345	2794
1345	2859
1345	3090
1345	3178
1345	3315
1345	3858
1345	4174
1345	4212
1346	1353
1346	1594
1346	1668
1346	1998
1346	2794
1346	3654
1346	4243
1346	4301
1346	4321
1346	4402
1346	4520
1346	4573
1346	4999
1347	1885
1347	2232
1347	2273
1347	2552
1347	2677
1347	3368
1347	3704
1347	3811
1347	4958
1348	1355
1348	1412
1348	1415
1348	1620
1348	1687
1348	1869
1348	1997
1348	2126
1348	2344
1348	2375
1348	2588
1348	2943
1348	3480
1348	3636
1348	3651
1348	3733
1348	4367
1348	4519
1348	4635
1348	4806
1349	1480
1349	1522
1349	1583
1349	1894
1349	2182
1349	2226
1349	2288
1349	2396
1349	2427
1349	2496
1349	2505
1349	2717
1349	2855
1349	3161
1349	3191
1349	3740
1349	3781
1349	3918
1349	4161
1349	4346
1349	4706
1349	4888
1350	1359
1350	1627
1350	1990
1350	2413
1350	2422
1350	2607
1350	3066
1350	3450
1350	3714
1350	3785
1350	3936
1350	4168
1350	4169
1350	4401
1350	4541
1350	4688
1351	1425
1351	1577
1351	2353
1351	2770
1351	2807
1351	3229
1351	3647
1351	4018
1351	4056
1351	4972
1352	1753
1352	2049
1352	2369
1352	2418
1352	2536
1352	3172
1352	3420
1352	3437
1352	3465
1352	3537
1352	3805
1352	4013
1352	4308
1353	1802
1353	1899
1353	2139
1353	2311
1353	3017
1353	3395
1354	1440
1354	1445
1354	1701
1354	1897
1354	1986
1354	2128
1354	2387
1354	2389
1354	2650
1354	2782
1354	2825
1354	2955
1354	3348
1354	3454
1354	3577
1354	4111
1354	4382
1355	1370
1355	1436
1355	1608
1355	1694
1355	1922
1355	2044
1355	2139
1355	2318
1355	2351
1355	2386
1355	2431
1355	2521
1355	2563
1355	2583
1355	2605
1355	2708
1355	2807
1355	2811
1355	2874
1355	2978
1355	3271
1355	3308
1355	3342
1355	3354
1355	3511
1355	3810
1355	4099
1355	4183
1355	4276
1355	4523
1355	4712
1355	4863
1355	4978
1356	1398
1356	1469
1356	1602
1356	1859
1356	2020
1356	2046
1356	2129
1356	2158
1356	2201
1356	3562
1356	3862
1356	3938
1356	3943
1356	4216
1356	4280
1356	4814
1356	4910
1356	4925
1357	2108
1357	2323
1357	2413
1357	2630
1357	3446
1357	4093
1357	4154
1357	4414
1358	1417
1358	1470
1358	1517
1358	1671
1358	1822
1358	1902
1358	1923
1358	2060
1358	2315
1358	2595
1358	2811
1358	2825
1358	2867
1358	2933
1358	3004
1358	3279
1358	3642
1358	3746
1358	3754
1358	3816
1358	4069
1358	4296
1358	4434
1358	4531
1358	4650
1358	4906
1358	4993
1359	1765
1359	1844
1359	1903
1359	2713
1359	3321
1359	3977
1359	4194
1360	1401
1360	1549
1360	1626
1360	1703
1360	2139
1360	2335
1360	4193
1361	1435
1361	1500
1361	1573
1361	1941
1361	2719
1361	3183
1361	3443
1361	3639
1361	3726
1361	3902
1361	3919
1361	4131
1361	4311
1361	4372
1361	4606
1361	4791
1361	4805
1361	4872
1362	1373
1362	1715
1362	1761
1362	1870
1362	1897
1362	1957
1362	1995
1362	2222
1362	2632
1362	2680
1362	2918
1362	3680
1362	3799
1362	4069
1362	4401
1362	4498
1362	4769
1362	4783
1363	1392
1363	1433
1363	1435
1363	1638
1363	1657
1363	1826
1363	1954
1363	3079
1363	4190
1363	4276
1363	4818
1364	1556
1364	1639
1364	1729
1364	1861
1364	2023
1364	2027
1364	2285
1364	2301
1364	2683
1364	2997
1364	3066
1364	3124
1364	3200
1364	3560
1364	3571
1364	4226
1364	4258
1364	4671
1365	1536
1365	2482
1365	2519
1365	2899
1365	3129
1365	3679
1365	3887
1365	4425
1366	1638
1366	1645
1366	1685
1366	1906
1366	2514
1366	2526
1366	3089
1366	3690
1366	3722
1366	3821
1366	3881
1366	4113
1366	4233
1366	4868
1367	1671
1367	1836
1367	1915
1367	2702
1367	3075
1367	3371
1367	3496
1367	3849
1367	4046
1367	4307
1368	1721
1368	1738
1368	1771
1368	1808
1368	1844
1368	1894
1368	2076
1368	2365
1368	2444
1368	3278
1368	3445
1368	3446
1368	3861
1368	3927
1368	4443
1368	4508
1368	4523
1368	4988
1368	4998
1369	1524
1369	1970
1369	2317
1369	2346
1369	2429
1369	2840
1369	2938
1369	3122
1369	3179
1369	3493
1369	3577
1369	3644
1369	3693
1369	3897
1369	4284
1369	4316
1369	4536
1369	4933
1370	2132
1370	2145
1370	2658
1370	2830
1370	2875
1370	3130
1370	3382
1370	3542
1370	3775
1370	4121
1370	4261
1370	4262
1371	1494
1371	1633
1371	1754
1371	1900
1371	2223
1371	2257
1371	2750
1371	2755
1371	3245
1371	3280
1371	3611
1371	4036
1371	4386
1371	4583
1371	4624
1371	4753
1371	4956
1372	1566
1372	2191
1372	2246
1372	2417
1372	2600
1372	2688
1372	2690
1372	2790
1372	2945
1372	3047
1372	3143
1372	3230
1372	3336
1372	3808
1372	4090
1372	4097
1372	4459
1372	4699
1373	1458
1373	1499
1373	1745
1373	1908
1373	1955
1373	1971
1373	1994
1373	2127
1373	2285
1373	2320
1373	2398
1373	2771
1373	2842
1373	2889
1373	2947
1373	2979
1373	3309
1373	3337
1373	3354
1373	3571
1373	3627
1373	4190
1373	4213
1373	4278
1373	4353
1373	4477
1373	4584
1373	4655
1373	4725
1373	4891
1374	1434
1374	1547
1374	1613
1374	1635
1374	1902
1374	1959
1374	2285
1374	2601
1374	2665
1374	2710
1374	3278
1374	3952
1374	4111
1374	4477
1374	4549
1374	4550
1375	1393
1375	1401
1375	1759
1375	2005
1375	2381
1375	2979
1375	3609
1375	3812
1375	3887
1375	3980
1376	1690
1376	1805
1376	1937
1376	2029
1376	2150
1376	2239
1376	2869
1376	3685
1376	4034
1376	4329
1376	4410
1377	1609
1377	1812
1377	1934
1377	1963
1377	2311
1377	2696
1377	2715
1377	3035
1377	3044
1377	3083
1377	3319
1377	3582
1377	3792
1377	4113
1377	4214
1377	4422
1377	4764
1377	4916
1378	2010
1378	2570
1378	2636
1378	2784
1378	2838
1378	3053
1378	3274
1378	3568
1378	3877
1379	2006
1379	2213
1379	3190
1379	3369
1379	3884
1379	4163
1379	4637
1379	4673
1379	4738
1379	4920
1380	1517
1380	2073
1380	2081
1380	2362
1380	2511
1380	2688
1380	2809
1380	2973
1380	2998
1380	3732
1380	4872
1381	2324
1381	2445
1381	2574
1381	2952
1381	3463
1381	3584
1381	3800
1381	4547
1381	4700
1381	4800
1382	1560
1382	2162
1382	2481
1382	2615
1382	2660
1382	3492
1382	3845
1382	3993
1382	4332
1382	4852
1383	1434
1383	1685
1383	1806
1383	1904
1383	2448
1383	2581
1383	3805
1383	4295
1383	4427
1383	4759
1383	4847
1384	2009
1384	2036
1384	2517
1384	3071
1384	3119
1384	3483
1384	4057
1384	4269
1384	4285
1384	4509
1385	1547
1385	1638
1385	2028
1385	2156
1385	2662
1385	3145
1385	3181
1385	3297
1385	3298
1385	3433
1385	3627
1385	3741
1385	3934
1385	4155
1385	4427
1386	1584
1386	1679
1386	1903
1386	1939
1386	1995
1386	2279
1386	2324
1386	2518
1386	2871
1386	3219
1386	3788
1386	4214
1386	4470
1387	1739
1387	1823
1387	1919
1387	2245
1387	2333
1387	2513
1387	2728
1387	3793
1387	4172
1387	4359
1387	4439
1388	1493
1388	1599
1388	2130
1388	2321
1388	2432
1388	3043
1388	3169
1388	3391
1388	3543
1388	3560
1388	3564
1388	3724
1388	4686
1389	1544
1389	1603
1389	1924
1389	1940
1389	2162
1389	2239
1389	2458
1389	2839
1389	2920
1389	3131
1389	3960
1389	4103
1389	4593
1389	4662
1390	1912
1390	2456
1390	3065
1390	3524
1391	1427
1391	1553
1391	1581
1391	1678
1391	1882
1391	1938
1391	1964
1391	2185
1391	2517
1391	2965
1391	3064
1391	3174
1391	3537
1391	3657
1391	3704
1391	3961
1391	4003
1391	4339
1391	4613
1392	1490
1392	1939
1392	2090
1392	2141
1392	2454
1392	3018
1392	3207
1392	4154
1392	4238
1392	4589
1392	4959
1393	1411
1393	1474
1393	1548
1393	1628
1393	1674
1393	2065
1393	2197
1393	2313
1393	2529
1393	2532
1393	3407
1393	3612
1393	3820
1393	3942
1393	4894
1394	1739
1394	2014
1394	2486
1394	3494
1394	3851
1394	4578
1394	4595
1395	1479
1395	1553
1395	1593
1395	1702
1395	2014
1395	2022
1395	2106
1395	2558
1395	2794
1395	3031
1395	3670
1395	3923
1395	4074
1395	4083
1395	4195
1395	4590
1395	4915
1396	1443
1396	2163
1396	2254
1396	2446
1396	2515
1396	2818
1396	3112
1396	3441
1396	3769
1396	3770
1396	3877
1396	4445
1396	4727
1396	4775
1397	1505
1397	1686
1397	1770
1397	2112
1397	2784
1397	2815
1397	3044
1397	3125
1397	3372
1397	4007
1397	4103
1397	4306
1397	4682
1397	4714
1397	4834
1397	4854
1398	1443
1398	2628
1398	2888
1398	3483
1398	3749
1398	4254
1398	4414
1398	4530
1398	4702
1399	1494
1399	2078
1399	2584
1399	3269
1399	4126
1400	1455
1400	1703
1400	1967
1400	2041
1400	2196
1400	2857
1400	3386
1400	4722
1400	4976
1401	1555
1401	1632
1401	1690
1401	1944
1401	2947
1401	3499
1401	3618
1401	3723
1401	4058
1401	4160
1401	4294
1401	4582
1401	4705
1401	4721
1401	4835
1401	4874
1402	1454
1402	1472
1402	1652
1402	1903
1402	2366
1402	3110
1402	3792
1402	4012
1402	4015
1402	4069
1402	4187
1402	4873
1403	1534
1403	1831
1403	2046
1403	2164
1403	2499
1403	3385
1403	3486
1403	3879
1403	3932
1403	4074
1403	4255
1403	4400
1403	4463
1403	4615
1403	4742
1403	4787
1404	1529
1404	1762
1404	2421
1404	2533
1404	2965
1404	3100
1404	3259
1404	3516
1404	3939
1404	4367
1404	4448
1404	4513
1404	4743
1404	4829
1404	4860
1405	1659
1405	1827
1405	2072
1405	2278
1405	2286
1405	2298
1405	2310
1405	2318
1405	2342
1405	2413
1405	2596
1405	2651
1405	2905
1405	3141
1405	3266
1405	3379
1405	3457
1405	3553
1405	3846
1405	4086
1405	4146
1406	1507
1406	1737
1406	1751
1406	1797
1406	2035
1406	2089
1406	2108
1406	2469
1406	2535
1406	3128
1406	3200
1406	3243
1406	3313
1406	3390
1406	3456
1406	3463
1406	3858
1406	3940
1406	4372
1406	4389
1407	1829
1407	2135
1407	2578
1407	2849
1407	3765
1407	3930
1407	4067
1407	4326
1407	4810
1407	4877
1408	1991
1408	2195
1408	2206
1408	2561
1408	2869
1408	3704
1408	3765
1408	3895
1409	2353
1409	2790
1409	2819
1409	3945
1410	1413
1410	1425
1410	2026
1410	2027
1410	2083
1410	2194
1410	2423
1410	2471
1410	2485
1410	2780
1410	2832
1410	2883
1410	3155
1410	3164
1410	3285
1410	3286
1410	3304
1410	3480
1410	3763
1410	3856
1410	4020
1410	4143
1410	4402
1410	4834
1411	1446
1411	1530
1411	1674
1411	1711
1411	1780
1411	2050
1411	2581
1411	2720
1411	2723
1411	2792
1411	3007
1411	3251
1411	3294
1411	3328
1411	3446
1411	3659
1411	4205
1411	4435
1411	4738
1411	4768
1412	1549
1412	1599
1412	1821
1412	1869
1412	2205
1412	2285
1412	3007
1412	3054
1412	3577
1412	4313
1412	4880
1412	4989
1413	1943
1413	1964
1413	1994
1413	2679
1413	2856
1413	2996
1413	3055
1413	3121
1413	3262
1413	3291
1413	3315
1413	3554
1413	3849
1413	3995
1413	4169
1413	4385
1413	4401
1413	4979
1414	1472
1414	2646
1414	2802
1414	3822
1414	4529
1414	4626
1415	1424
1415	1465
1415	1783
1415	2260
1415	2940
1415	3228
1415	3412
1415	3525
1415	4841
1415	4845
1416	1595
1416	1878
1416	1978
1416	2069
1416	2130
1416	2201
1416	2481
1416	3188
1416	3421
1416	3433
1416	4013
1416	4071
1416	4695
1416	4934
1417	1598
1417	1872
1417	2003
1417	2091
1417	2592
1417	2683
1417	2748
1417	2762
1417	2951
1417	3135
1417	3139
1417	3223
1417	4140
1417	4430
1417	4580
1417	4742
1418	1580
1418	1657
1418	2033
1418	2131
1418	2443
1418	2543
1418	3063
1418	3074
1418	3430
1418	3794
1418	3803
1418	3939
1418	3975
1418	4456
1418	4867
1419	1507
1419	1948
1419	1977
1419	1989
1419	2125
1419	2152
1419	2251
1419	2516
1419	2549
1419	2701
1419	3170
1419	3915
1419	4330
1419	4656
1419	4756
1420	1794
1420	2015
1420	3192
1420	3415
1420	3873
1420	3915
1420	4780
1420	4840
1421	1498
1421	1735
1421	2690
1421	2909
1421	3009
1421	3423
1421	3622
1421	3895
1421	4178
1421	4294
1421	4763
1422	1663
1422	1680
1422	1805
1422	1900
1422	2252
1422	2277
1422	2473
1422	2494
1422	2817
1422	3464
1422	4040
1422	4202
1422	4262
1422	4346
1422	4448
1422	4567
1422	4911
1423	1476
1423	1548
1423	1553
1423	2080
1423	2227
1423	3100
1423	3202
1423	3506
1423	4107
1423	4333
1423	4389
1423	4819
1424	2225
1424	2277
1424	2292
1424	2335
1424	2397
1424	2410
1424	2505
1424	3193
1424	3257
1424	3395
1424	3520
1424	3591
1424	3970
1424	4133
1424	4255
1424	4311
1424	4556
1424	4844
1424	4914
1425	1485
1425	1544
1425	1613
1425	1705
1425	1732
1425	1805
1425	1968
1425	2041
1425	2197
1425	2377
1425	2825
1425	3228
1425	3886
1425	4951
1426	1614
1426	1681
1426	2299
1426	2396
1426	2929
1426	3130
1426	3276
1426	3286
1426	3315
1426	3355
1426	3571
1426	3580
1426	3630
1426	3906
1426	3962
1426	4275
1426	4315
1426	4565
1426	4570
1426	4712
1427	1589
1427	1916
1427	2001
1427	2655
1427	2826
1427	2912
1427	2945
1427	3252
1427	3465
1427	3487
1427	3706
1427	4691
1427	4733
1427	4769
1427	4939
1428	1527
1428	1564
1428	2164
1428	2515
1428	3077
1428	3128
1428	3133
1428	3217
1428	3392
1428	3733
1428	3780
1428	3789
1428	3962
1428	4493
1428	4656
1428	4789
1428	4872
1428	4876
1429	1438
1429	1653
1429	1851
1429	2522
1429	3194
1429	3272
1429	3460
1429	3683
1429	3904
1429	3925
1429	4432
1429	4656
1430	1542
1430	1762
1430	1965
1430	2025
1430	2129
1430	2153
1430	2160
1430	2161
1430	2256
1430	2398
1430	2485
1430	2531
1430	2989
1430	3934
1430	4409
1430	4452
1430	4654
1430	4674
1431	2427
1431	3033
1431	3204
1432	1545
1432	1885
1432	1901
1432	1903
1432	1977
1432	2420
1432	2671
1432	2785
1432	2822
1432	2916
1432	3052
1432	3239
1432	3477
1432	3488
1432	3630
1432	3636
1432	3775
1432	4139
1432	4874
1433	3391
1433	4555
1433	4664
1433	4721
1433	4793
1434	1465
1434	1559
1434	1855
1434	1877
1434	2089
1434	2492
1434	2495
1434	2521
1434	2585
1434	2825
1434	3370
1434	3994
1434	4042
1434	4241
1434	4482
1434	4522
1435	2036
1435	2052
1435	2505
1435	2578
1435	2966
1435	3299
1435	3322
1435	3610
1435	3695
1435	3994
1436	1458
1436	1973
1436	2156
1436	2340
1436	3384
1436	3688
1436	3978
1436	4027
1436	4146
1436	4676
1436	4791
1437	1439
1437	1768
1437	1795
1437	1877
1437	1898
1437	2364
1437	2400
1437	2562
1437	2675
1437	2677
1437	2740
1437	2769
1437	2818
1437	3265
1437	3271
1437	3350
1437	3606
1437	3654
1437	3709
1437	3759
1437	3932
1437	4011
1437	4034
1437	4263
1437	4369
1437	4395
1437	4736
1437	4899
1438	1522
1438	1623
1438	1852
1438	1904
1438	1956
1438	1970
1438	2061
1438	2788
1438	3096
1438	3262
1438	3301
1438	3435
1438	3653
1438	3665
1438	4486
1439	1451
1439	1760
1439	1804
1439	2353
1439	2430
1439	2562
1439	2577
1439	2762
1439	2976
1439	3500
1439	3592
1439	3633
1439	3654
1439	3755
1439	4377
1439	4625
1439	4969
1440	1736
1440	1786
1440	1955
1440	2220
1440	2346
1440	2381
1440	2450
1440	2744
1440	2878
1440	2924
1440	3094
1440	3142
1440	3353
1440	3360
1440	4428
1440	4608
1441	1558
1441	2192
1441	2234
1441	2235
1441	2404
1441	3101
1441	3376
1441	4139
1441	4192
1442	1484
1442	1648
1442	1881
1442	2213
1442	2291
1442	2339
1442	2774
1442	3653
1442	3716
1442	3733
1442	4121
1442	4146
1442	4321
1443	1500
1443	1611
1443	1874
1443	2771
1443	2949
1443	2984
1443	3463
1443	3655
1443	3805
1443	4016
1443	4519
1444	1529
1444	2097
1444	2196
1444	2327
1444	2344
1444	2492
1444	2543
1444	2566
1444	2769
1444	2798
1444	2975
1444	3068
1444	3156
1444	3263
1444	3499
1444	3502
1444	3555
1444	3721
1444	4036
1444	4492
1445	1453
1445	1518
1445	1742
1445	2067
1445	2540
1445	2747
1445	3398
1445	3405
1445	3631
1445	3794
1445	4108
1445	4124
1445	4634
1445	4636
1446	2181
1446	2296
1446	2472
1446	2680
1446	3009
1446	3052
1446	3184
1446	3664
1446	3882
1446	3909
1446	4232
1446	4480
1446	4530
1446	4625
1447	2084
1447	2129
1447	2582
1447	2731
1447	3362
1447	3494
1447	3635
1447	4214
1447	4265
1447	4704
1447	4802
1448	1791
1448	1998
1448	2166
1448	2292
1448	2458
1448	2947
1448	3314
1448	3413
1448	3773
1448	3820
1448	3833
1448	3869
1448	4318
1448	4815
1449	1560
1449	1678
1449	2029
1449	2095
1449	2179
1449	2508
1449	2551
1449	2564
1449	2750
1449	2981
1449	2994
1449	3502
1449	3526
1449	3721
1449	3723
1449	3785
1449	4247
1449	4326
1449	4382
1449	4387
1449	4403
1449	4773
1449	4890
1450	1893
1450	1977
1450	2003
1450	2083
1450	2145
1450	2280
1450	2542
1450	2737
1450	2738
1450	3173
1450	3637
1450	4309
1450	4544
1450	4729
1451	1539
1451	1883
1451	2098
1451	2108
1451	2357
1451	2929
1451	3193
1451	3598
1451	4339
1451	4674
1452	1874
1452	1897
1452	1926
1452	2021
1452	3046
1452	3178
1452	3629
1452	4092
1453	1620
1453	1871
1453	2167
1453	2335
1453	2473
1453	2613
1453	2780
1453	3306
1453	3404
1453	3409
1453	3802
1453	4055
1453	4077
1453	4188
1453	4236
1453	4697
1453	4742
1453	4787
1454	1837
1454	1839
1454	1854
1454	2168
1454	2469
1454	2747
1454	2940
1454	2953
1454	3091
1454	3169
1454	3529
1454	4971
1455	1462
1455	2121
1455	2290
1455	2340
1455	2370
1455	2518
1455	2753
1455	2843
1455	3098
1455	3243
1455	3754
1455	4111
1455	4198
1455	4447
1456	1559
1456	1626
1456	1653
1456	1687
1456	1752
1456	1919
1456	2384
1456	2418
1456	2578
1456	2657
1456	2798
1456	3097
1456	3409
1456	3479
1456	3871
1456	4066
1456	4300
1456	4444
1456	4727
1456	4927
1457	1472
1457	1674
1457	1877
1457	1906
1457	1973
1457	2203
1457	2385
1457	3050
1457	3072
1457	3096
1457	3191
1457	3362
1457	3621
1457	3915
1457	4225
1457	4256
1457	4335
1458	1665
1458	2298
1458	2332
1458	2382
1458	2609
1458	2684
1458	2819
1458	3283
1458	3392
1458	3648
1458	3668
1458	3885
1458	4133
1458	4177
1458	4705
1458	4880
1459	1898
1459	2019
1459	2547
1459	2554
1459	2590
1459	2612
1459	2971
1459	3568
1459	4383
1459	4469
1460	1597
1460	1883
1460	1971
1460	2030
1460	2033
1460	2073
1460	2103
1460	2110
1460	2344
1460	2495
1460	2755
1460	2793
1460	2844
1460	3049
1460	3051
1460	3068
1460	3603
1460	3607
1460	3713
1460	3731
1460	4080
1460	4474
1460	4573
1460	4889
1460	4901
1461	1503
1461	1967
1461	2137
1461	2161
1461	2298
1461	2330
1461	2691
1461	3017
1461	3263
1461	3751
1461	4051
1461	4088
1462	1589
1462	1616
1462	1729
1462	2018
1462	2112
1462	2336
1462	2499
1462	2505
1462	2506
1462	2562
1462	2735
1462	2912
1462	3442
1462	3614
1462	3902
1462	4157
1462	4162
1462	4332
1462	4355
1462	4826
1462	4902
1463	1588
1463	1614
1463	1907
1463	2068
1463	2642
1463	4564
1463	4672
1463	4719
1464	1670
1464	1831
1464	1943
1464	2243
1464	2548
1464	3184
1464	3330
1464	3756
1464	3925
1464	3935
1464	3958
1464	4272
1465	1488
1465	1613
1465	2416
1465	2492
1465	3321
1465	3519
1465	3561
1465	4373
1466	1783
1466	2461
1466	2767
1466	3207
1466	3303
1466	3404
1466	3496
1466	4099
1466	4137
1466	4405
1467	1555
1467	1648
1467	1807
1467	1998
1467	2091
1467	2126
1467	2351
1467	2550
1467	2689
1467	3783
1467	3883
1467	4206
1468	1528
1468	1570
1468	1740
1468	1826
1468	1983
1468	2347
1468	2724
1468	2850
1468	3166
1468	3374
1468	3661
1468	3742
1468	3974
1468	4378
1468	4410
1469	1857
1469	2003
1469	2095
1469	2238
1469	2398
1469	2522
1469	2603
1469	2717
1469	2874
1469	3206
1469	3333
1469	3630
1469	3929
1469	3946
1469	3969
1469	3990
1469	4071
1469	4134
1469	4189
1469	4832
1469	4876
1470	1498
1470	1770
1470	1915
1470	2311
1470	2369
1470	2429
1470	3501
1470	3961
1470	4104
1471	1495
1471	1645
1471	1883
1471	1890
1471	2077
1471	2300
1471	2482
1471	4698
1471	4759
1471	4811
1472	1718
1472	2170
1472	2346
1472	2927
1472	3055
1472	3309
1472	3468
1472	3478
1472	3557
1472	3673
1472	3778
1472	4667
1472	4988
1473	1538
1473	1776
1473	1818
1473	2091
1473	2630
1473	3860
1474	1747
1474	2180
1474	2435
1474	2549
1474	2596
1474	2734
1474	3161
1474	3562
1474	3719
1474	3962
1474	4136
1474	4278
1474	4568
1474	4913
1475	1658
1475	1754
1475	2082
1475	2305
1475	2423
1475	2623
1475	2713
1475	2793
1475	2826
1475	2858
1475	2935
1475	3815
1475	3974
1475	4023
1475	4359
1476	1768
1476	1915
1476	2211
1476	3166
1476	3211
1476	4350
1476	4429
1477	1602
1477	2722
1477	3092
1477	3257
1477	4130
1477	4799
1478	1671
1478	2072
1478	2159
1478	2238
1478	2598
1478	2632
1478	3249
1478	3301
1478	3746
1478	4347
1478	4352
1478	4510
1478	4650
1478	4730
1478	4849
1478	4997
1479	1562
1479	1753
1479	1823
1479	1950
1479	2337
1479	2558
1479	2808
1479	2883
1479	2916
1479	3015
1479	3431
1479	3858
1479	4350
1479	4551
1479	4753
1480	1510
1480	2185
1480	3153
1480	3200
1480	4019
1481	1780
1481	1900
1481	2060
1481	2119
1481	2151
1481	2245
1481	2271
1481	2337
1481	2533
1481	2730
1481	3119
1481	3319
1481	3344
1481	3863
1481	4933
1482	1788
1482	1851
1482	2219
1482	2553
1482	3275
1482	3312
1482	3530
1482	4228
1483	1926
1483	2056
1483	2092
1483	2119
1483	2759
1483	2899
1483	2914
1483	3027
1483	3319
1483	3366
1483	3390
1483	3598
1483	4159
1483	4308
1483	4493
1483	4813
1484	1865
1484	1967
1484	2231
1484	2284
1484	2352
1484	2614
1484	2691
1484	2710
1484	2759
1484	2902
1484	3049
1484	3065
1484	3179
1484	3332
1484	3399
1484	3423
1484	3655
1484	3704
1484	3794
1484	4402
1484	4984
1485	1561
1485	1628
1485	1680
1485	1728
1485	1840
1485	2852
1485	2873
1485	2884
1485	2954
1485	3461
1485	3974
1485	4035
1485	4085
1485	4227
1485	4329
1485	4521
1486	1618
1486	1767
1486	2084
1486	2131
1486	2447
1486	2449
1486	2646
1486	3266
1486	3332
1486	3354
1486	3379
1486	3435
1486	3461
1486	4281
1486	4659
1486	4745
1487	1498
1487	2130
1487	3377
1487	3516
1487	3703
1487	4331
1487	4638
1488	1868
1488	2776
1488	2830
1488	3355
1488	3451
1488	3584
1488	3619
1488	3717
1488	4108
1488	4152
1488	4160
1488	4204
1488	4370
1488	4527
1488	4599
1488	4901
1488	4931
1489	1533
1489	1657
1489	2162
1489	2413
1489	2960
1489	3497
1489	3619
1489	3853
1489	4046
1489	4580
1489	4806
1489	4822
1489	4993
1490	1634
1490	2023
1490	2145
1490	2570
1490	2669
1490	3482
1490	3594
1490	3799
1490	4101
1490	4270
1490	4301
1490	4776
1491	1578
1491	1764
1491	2187
1491	2607
1491	2660
1491	2708
1491	2830
1491	2843
1491	3005
1491	3040
1491	3174
1491	3409
1491	3690
1491	4120
1491	4136
1491	4161
1491	4608
1492	1692
1492	3443
1492	3461
1492	3558
1492	4240
1493	1766
1493	1994
1493	2154
1493	2261
1493	2403
1493	2532
1493	2551
1493	2749
1493	2904
1493	2976
1493	3078
1493	3092
1493	3281
1493	3445
1493	3577
1493	3746
1493	3927
1493	4435
1494	2295
1494	2662
1494	3086
1494	3307
1494	3390
1494	4262
1494	4905
1495	1553
1495	1873
1495	1885
1495	2383
1495	3291
1495	3304
1495	3493
1495	3649
1495	3718
1495	4147
1495	4179
1495	4539
1495	4912
1496	1509
1496	1872
1496	1980
1496	2786
1496	2917
1496	3219
1496	3759
1496	4052
1496	4685
1496	4835
1497	1542
1497	1647
1497	1687
1497	3053
1497	3701
1497	3740
1498	1529
1498	1606
1498	2007
1498	2070
1498	2315
1498	2329
1498	2569
1498	2961
1498	3032
1498	3240
1498	3814
1498	3967
1498	4159
1498	4436
1498	4452
1498	4855
1499	1639
1499	1646
1499	1861
1499	1887
1499	2162
1499	2341
1499	2501
1499	2606
1499	2910
1499	3158
1499	3571
1499	3573
1499	3582
1499	3666
1499	3965
1499	4540
1499	4794
1500	1503
1500	1947
1500	2044
1500	2291
1500	2360
1500	2516
1500	2522
1500	2706
1500	3043
1500	3065
1500	3305
1500	3517
1500	3828
1500	3864
1500	4034
1500	4813
1500	4830
1501	1539
1501	1882
1501	2080
1501	2182
1501	2387
1501	2628
1501	2719
1501	2779
1501	2809
1501	2820
1501	3244
1501	3378
1501	3562
1501	3984
1501	3985
1501	4126
1501	4128
1501	4452
1501	4531
1501	4960
1502	1918
1502	2409
1502	2676
1502	2828
1502	2832
1502	2937
1502	3283
1502	3473
1502	3904
1502	3928
1502	4049
1502	4268
1502	4472
1503	2003
1503	2526
1503	3055
1503	4314
1503	4369
1504	1543
1504	1608
1504	2092
1504	2104
1504	2204
1504	2262
1504	2379
1504	2395
1504	2797
1504	2819
1504	3045
1504	4242
1504	4260
1504	4845
1504	4856
1505	1545
1505	1824
1505	2325
1505	3731
1505	3896
1505	4117
1505	4130
1505	4424
1505	4602
1505	4818
1506	1549
1506	1689
1506	1811
1506	1863
1506	2225
1506	2258
1506	2390
1506	2423
1506	2519
1506	2603
1506	2610
1506	2733
1506	2926
1506	3338
1506	3462
1506	3492
1506	3637
1506	3831
1506	3833
1506	4094
1506	4372
1506	4394
1506	4405
1506	4559
1506	4672
1506	4717
1506	4731
1506	4752
1506	4984
1506	4992
1507	1985
1507	2052
1507	2405
1507	2606
1507	2619
1507	2827
1507	3042
1507	3080
1507	3111
1507	3839
1507	4049
1507	4317
1507	4531
1507	4598
1507	4822
1508	1522
1508	1557
1508	1670
1508	1761
1508	1926
1508	4057
1508	4192
1509	1608
1509	1665
1509	1730
1509	2443
1509	2516
1509	2568
1509	2804
1509	2970
1509	3062
1509	3618
1509	3737
1509	4035
1509	4412
1509	4507
1509	4729
1510	1653
1510	2201
1510	2312
1510	2914
1510	3097
1510	3409
1510	3588
1510	3852
1511	1606
1511	1631
1511	1785
1511	1799
1511	1837
1511	1974
1511	2013
1511	2357
1511	2370
1511	2413
1511	2531
1511	2579
1511	2633
1511	2715
1511	2853
1511	2988
1511	3083
1511	3316
1511	4487
1511	4959
1512	1639
1512	1666
1512	1728
1512	2095
1512	2338
1512	2613
1512	2632
1512	2699
1512	2997
1512	3814
1512	3863
1512	4009
1512	4150
1512	4658
1512	4892
1513	1639
1513	1956
1513	2312
1513	2720
1513	2898
1514	1739
1514	1769
1514	2054
1514	2480
1514	2572
1514	2579
1514	2748
1514	2907
1514	3103
1514	3318
1515	1868
1515	1869
1515	2238
1515	2290
1515	2545
1515	2756
1515	2809
1515	2887
1515	3605
1515	3698
1515	4188
1515	4453
1515	4570
1516	1706
1516	2319
1516	2410
1516	2500
1516	2673
1516	2805
1516	2949
1516	3074
1516	3208
1516	3869
1516	4552
1516	4634
1517	1649
1517	2241
1517	2733
1517	3511
1517	4369
1517	4877
1518	1602
1518	1663
1518	2074
1518	2247
1518	2554
1518	3682
1518	3925
1518	4233
1518	4311
1518	4888
1519	1735
1519	1737
1519	1956
1519	2388
1519	2570
1519	3232
1519	3730
1519	4318
1519	4432
1519	4982
1520	2230
1520	2340
1520	2518
1520	2845
1520	3340
1520	3641
1521	1533
1521	1886
1521	1959
1521	1996
1521	3068
1521	3847
1521	4244
1521	4868
1522	1621
1522	1682
1522	1684
1522	1702
1522	1765
1522	1771
1522	1953
1522	2038
1522	2147
1522	2195
1522	2287
1522	2347
1522	2609
1522	2639
1522	3583
1522	3826
1522	4219
1522	4314
1522	4381
1522	4685
1522	4706
1522	4873
1522	4907
1523	1571
1523	1623
1523	2237
1523	2595
1523	2631
1523	2791
1523	3077
1523	3225
1523	3255
1523	3401
1523	3512
1523	3666
1523	3743
1523	3836
1523	3986
1523	4921
1524	1550
1524	1820
1524	2085
1524	3061
1524	3432
1524	3529
1524	3816
1524	3985
1524	4008
1524	4080
1524	4445
1524	4531
1524	4653
1524	4698
1524	4750
1524	4779
1525	1542
1525	1665
1525	1787
1525	2354
1525	2411
1525	2962
1525	3210
1525	3239
1525	3551
1525	3700
1525	3809
1525	3818
1525	4553
1526	1694
1526	1717
1526	1920
1526	2711
1526	3157
1526	3612
1526	4014
1526	4623
1526	4664
1526	4845
1527	1823
1527	1842
1527	2253
1527	2254
1527	2486
1527	3405
1527	3645
1527	3825
1527	4438
1527	4903
1528	1567
1528	2850
1528	2946
1528	2957
1528	2992
1528	3709
1528	4031
1528	4483
1529	1550
1529	1919
1529	1938
1529	2183
1529	2438
1529	2561
1529	2593
1529	2752
1529	3073
1529	3104
1529	3221
1529	3807
1529	4028
1529	4547
1529	4562
1529	4955
1530	1705
1530	1789
1530	2287
1530	2568
1530	4807
1531	1732
1531	1947
1531	2799
1531	2912
1531	3142
1531	3586
1531	3637
1531	4147
1531	4915
1532	1574
1532	1633
1532	1773
1532	1836
1532	2291
1532	2890
1532	4199
1532	4294
1532	4373
1532	4807
1532	4837
1533	1693
1533	1812
1533	2333
1533	2628
1533	2779
1533	3046
1533	4170
1533	4221
1533	4325
1534	1585
1534	1855
1534	2054
1534	2646
1534	2869
1534	2890
1534	3378
1534	3507
1534	3905
1534	4203
1534	4932
1534	4966
1534	4985
1535	1936
1535	1976
1535	2274
1535	2541
1535	3696
1535	4006
1535	4400
1535	4658
1536	1690
1536	2055
1536	2058
1536	2142
1536	2312
1536	3088
1536	3124
1536	3261
1536	3321
1536	3722
1536	3810
1536	3880
1536	3893
1536	3931
1536	4238
1536	4427
1536	4696
1536	4878
1537	1684
1537	1771
1537	2075
1537	2241
1537	3140
1537	3943
1537	4352
1537	4808
1538	1627
1538	1855
1538	1978
1538	2208
1538	2220
1538	2448
1538	2668
1538	2823
1538	2972
1538	3820
1538	3982
1538	4107
1538	4344
1538	4408
1538	4444
1538	4752
1539	1978
1539	2077
1539	2134
1539	2348
1539	2469
1539	2490
1539	3048
1539	3733
1539	3855
1539	3925
1539	4149
1539	4323
1539	4429
1539	4689
1539	4926
1540	1886
1540	1897
1540	2057
1540	2318
1540	2544
1540	3201
1540	3308
1540	3329
1540	3590
1540	3819
1540	3833
1540	3849
1540	4103
1540	4427
1540	4529
1540	4851
1541	1747
1541	1758
1541	1802
1541	1832
1541	1969
1541	2044
1541	2441
1541	2557
1541	2725
1541	3323
1541	3652
1541	3832
1541	4641
1541	4684
1541	4841
1541	4852
1542	1549
1542	1923
1542	1941
1542	2047
1542	2158
1542	2180
1542	2298
1542	2329
1542	2797
1542	2960
1542	3318
1542	4432
1542	4540
1542	4663
1543	1887
1543	1962
1543	1974
1543	2003
1543	2078
1543	2186
1543	2209
1543	2386
1543	3313
1543	3315
1543	3365
1543	3400
1543	3496
1543	3526
1543	3536
1543	3606
1543	3862
1543	4502
1543	4957
1544	1631
1544	1863
1544	2126
1544	2161
1544	2171
1544	2241
1544	2843
1544	3117
1544	3169
1544	3202
1544	3400
1544	3435
1544	3704
1544	3885
1544	3907
1544	3988
1544	4687
1545	1803
1545	2114
1545	2408
1545	2801
1545	3102
1545	3192
1545	3197
1545	3365
1545	3374
1546	1612
1546	1739
1546	1819
1546	2163
1546	2460
1546	2606
1546	2617
1546	3280
1546	3453
1546	3955
1546	4240
1546	4680
1546	4801
1546	4832
1546	4882
1547	1887
1547	2025
1547	2299
1547	2817
1547	2913
1547	3687
1547	4783
1547	4833
1547	4892
1548	1609
1548	1833
1548	1971
1548	2177
1548	2284
1548	2389
1548	2440
1548	2852
1548	3440
1548	3606
1548	3710
1548	3713
1548	3827
1548	3951
1548	4382
1548	4458
1548	4562
1549	2089
1549	2091
1549	2593
1549	2738
1549	3304
1549	3818
1549	4124
1549	4200
1549	4386
1550	1719
1550	1817
1550	1930
1550	2167
1550	2285
1550	2353
1550	2707
1550	4033
1550	4063
1550	4169
1550	4652
1550	4718
1550	4945
1551	2328
1551	2437
1551	2727
1551	2808
1551	2819
1551	3226
1551	3516
1551	3913
1551	4040
1551	4226
1552	1973
1552	2270
1552	3151
1552	4560
1552	4946
1553	1615
1553	1670
1553	1685
1553	1793
1553	1904
1553	2560
1553	4539
1554	1689
1554	2112
1554	2272
1554	2356
1554	2362
1554	2645
1554	2675
1554	3370
1554	3416
1554	3472
1554	3983
1555	2032
1555	2039
1555	2240
1555	2329
1555	2504
1555	2522
1555	2528
1555	2743
1555	3050
1555	3256
1555	3660
1555	4274
1555	4656
1556	1578
1556	1585
1556	1784
1556	2409
1556	2419
1556	3230
1556	3262
1556	3442
1556	3887
1556	4022
1556	4144
1556	4816
1557	1624
1557	1763
1557	1794
1557	2490
1557	2977
1557	3249
1557	3382
1557	3525
1557	4973
1558	1967
1558	2062
1558	2856
1558	3019
1558	3118
1558	4766
1559	2041
1559	2079
1559	2259
1559	2584
1559	2723
1559	3351
1559	3758
1559	3787
1559	4046
1559	4844
1559	4910
1560	2112
1560	2663
1560	3111
1560	3314
1560	3357
1560	4467
1560	4475
1560	4628
1561	1964
1561	1969
1561	2174
1561	2900
1561	3721
1561	4143
1562	2007
1562	2194
1562	2896
1562	2982
1562	3160
1562	3399
1562	3544
1562	3617
1562	3728
1562	3924
1562	4031
1562	4529
1562	4776
1562	4783
1562	4998
1563	1577
1563	1670
1563	2035
1563	3883
1563	4987
1564	1901
1564	1928
1564	2142
1564	2277
1564	2306
1564	2512
1564	2655
1564	3269
1564	3330
1564	3613
1564	4542
1564	4949
1565	1626
1565	1672
1565	1712
1565	2109
1565	2634
1565	2801
1565	3466
1565	3630
1565	3762
1565	3804
1565	3822
1565	4126
1565	4652
1566	1753
1566	1831
1566	2098
1566	2131
1566	2487
1566	2717
1566	2777
1566	2872
1566	3615
1566	3703
1566	4193
1566	4246
1567	1589
1567	1792
1567	1905
1567	2318
1567	2612
1567	2620
1567	2948
1567	3129
1567	3287
1567	3458
1567	3481
1567	3803
1567	4330
1567	4761
1568	1616
1568	1927
1568	2342
1568	2564
1568	2657
1568	2759
1568	2974
1568	3172
1568	3571
1568	3702
1568	3713
1568	4831
1569	2327
1569	2576
1569	2788
1569	3311
1569	3725
1569	4292
1569	4306
1569	4486
1569	4726
1570	2012
1570	2236
1570	2364
1570	2599
1570	2760
1570	2908
1570	3421
1570	3577
1570	4071
1570	4082
1570	4147
1570	4819
1571	1600
1571	1840
1571	2322
1571	2477
1571	2484
1571	2642
1571	3164
1571	3319
1571	4073
1571	4133
1572	2201
1572	2427
1572	2639
1572	2904
1572	3160
1572	3169
1572	3302
1572	4393
1572	4480
1572	4673
1572	4768
1573	1758
1573	1823
1573	1949
1573	2168
1573	2724
1573	2998
1573	3277
1573	3283
1573	3548
1573	3605
1573	3678
1573	4246
1573	4765
1574	2549
1574	2960
1574	3325
1574	3783
1574	4181
1574	4442
1574	4703
1574	4830
1575	1724
1575	2008
1575	2275
1575	2671
1575	2744
1575	2882
1575	3046
1575	3474
1575	3476
1575	3766
1575	3925
1575	4219
1575	4321
1575	4506
1575	4558
1575	4629
1576	1620
1576	1807
1576	1893
1576	2242
1576	2340
1576	2349
1576	2651
1576	2829
1576	2899
1576	3070
1576	4481
1576	4948
1577	1743
1577	1761
1577	1841
1577	2017
1577	2193
1577	3385
1577	3514
1577	3956
1577	4007
1577	4123
1577	4306
1577	4311
1577	4555
1577	4920
1578	2240
1578	2429
1578	2926
1578	3176
1578	3769
1578	4691
1578	4869
1579	1635
1579	1729
1579	1767
1579	2213
1579	2342
1579	2430
1579	2593
1579	2633
1579	2769
1579	2892
1579	3374
1579	3566
1579	3798
1579	4109
1579	4329
1579	4641
1579	4920
1579	4959
1580	1596
1580	1888
1580	1916
1580	2336
1580	2603
1580	2644
1580	2656
1580	2851
1580	3111
1580	4395
1581	1656
1581	1683
1581	1835
1581	1995
1581	2123
1581	2331
1581	2435
1581	3079
1581	3250
1582	1596
1582	2184
1582	2718
1582	3439
1582	3522
1582	3531
1582	4131
1582	4424
1582	4482
1582	4933
1583	2486
1583	2677
1583	2872
1583	4555
1583	4738
1583	4861
1584	1804
1584	1948
1584	1972
1584	2091
1584	2654
1584	2672
1584	2840
1584	3337
1584	4101
1585	2040
1585	3135
1585	3352
1585	3365
1585	3489
1585	3919
1585	3958
1586	3273
1586	3316
1586	3518
1586	3757
1587	1923
1587	2186
1587	2355
1587	2684
1587	3279
1587	3459
1587	3505
1587	3925
1587	3950
1587	4354
1587	4903
1588	2133
1588	2164
1588	2203
1588	2467
1588	2705
1588	2989
1588	3397
1588	3430
1588	3954
1588	4362
1588	4541
1588	4605
1589	1696
1589	1921
1589	1955
1589	2100
1589	2519
1589	2589
1589	2629
1589	2758
1589	2886
1589	2895
1589	2940
1589	3567
1589	3648
1589	3803
1589	3941
1589	4110
1589	4329
1589	4588
1589	4758
1590	2161
1590	2228
1590	2472
1590	2610
1590	2891
1590	4033
1590	4246
1591	1762
1591	2279
1591	2360
1591	2403
1591	2711
1591	2974
1591	3001
1591	3366
1591	4388
1591	4648
1591	4674
1591	4806
1591	4909
1592	1597
1592	1908
1592	2457
1592	2752
1592	3602
1592	4146
1592	4496
1592	4602
1592	4791
1592	4989
1593	1613
1593	1767
1593	1783
1593	1806
1593	1874
1593	1947
1593	2661
1593	2909
1593	3830
1593	3869
1593	4523
1593	4649
1593	4863
1593	4966
1594	2058
1594	2181
1594	2508
1594	2689
1594	2742
1594	2773
1594	2933
1594	3031
1594	3064
1594	3108
1594	3275
1594	3435
1594	3650
1594	3991
1594	3999
1594	4997
1595	1682
1595	2211
1595	2248
1595	2261
1595	2532
1595	2783
1595	2835
1595	2942
1595	3624
1595	3815
1595	3924
1595	4376
1595	4387
1595	4437
1596	1701
1596	1755
1596	2381
1596	2389
1596	2807
1596	3025
1596	3340
1596	3373
1596	3614
1596	3811
1596	4528
1596	4855
1597	2401
1597	2646
1597	3290
1597	3446
1597	3790
1597	3886
1597	4413
1597	4816
1598	2006
1598	2322
1598	3050
1598	3650
1598	4686
1598	4979
1599	1744
1599	2132
1599	2159
1599	3618
1599	3653
1599	3694
1599	4391
1599	4668
1599	4772
1600	1944
1600	1962
1600	2041
1600	2882
1600	3645
1600	3707
1600	3973
1600	4164
1600	4510
1600	4923
1601	1928
1601	2123
1601	2546
1601	2668
1601	3126
1601	3200
1601	3211
1601	3689
1601	4738
1601	4772
1602	1725
1602	1729
1602	2261
1602	2263
1602	2492
1602	2737
1602	2936
1602	3838
1602	3998
1602	4139
1602	4748
1603	2422
1603	2782
1603	3124
1603	3952
1603	4270
1603	4711
1604	1852
1604	2470
1604	2513
1604	2717
1604	2735
1604	2993
1604	3012
1604	3105
1604	3331
1604	4025
1604	4129
1604	4915
1605	2195
1605	2375
1605	2501
1605	2601
1605	3228
1605	3410
1605	4088
1605	4210
1605	4224
1605	4316
1605	4383
1605	4545
1606	1655
1606	1793
1606	2052
1606	2698
1606	3295
1606	3825
1606	4561
1607	1929
1607	2210
1607	2580
1607	2723
1607	2759
1607	3086
1607	3104
1607	3179
1607	3275
1607	3306
1607	3516
1607	3635
1607	3887
1607	4228
1607	4499
1608	2020
1608	2202
1608	2209
1608	2367
1608	2488
1608	3079
1608	3234
1608	3328
1608	3374
1608	3455
1608	4040
1608	4276
1608	4309
1608	4463
1608	4535
1609	1758
1609	1962
1609	2180
1609	2408
1609	2791
1609	2795
1609	2894
1609	3172
1609	3194
1609	3198
1609	3743
1609	3810
1609	3896
1609	4087
1609	4353
1609	4502
1609	4724
1609	4844
1610	1715
1610	1722
1610	1743
1610	1893
1610	2114
1610	2260
1610	2356
1610	2470
1610	3065
1610	3458
1610	3984
1610	3986
1610	4310
1610	4570
1610	4815
1610	4885
1611	1933
1611	1951
1611	2308
1611	2392
1611	2440
1611	2509
1611	2691
1611	3072
1611	3297
1611	3366
1611	3447
1611	3519
1611	3589
1611	3607
1611	3643
1611	4358
1611	4509
1611	4852
1612	1918
1612	1978
1612	1989
1612	2094
1612	2352
1612	2531
1612	2652
1612	2666
1612	2775
1612	2794
1612	3205
1612	3290
1612	3795
1612	3907
1613	1635
1613	1661
1613	1745
1613	1909
1613	1947
1613	2087
1613	2243
1613	2319
1613	2416
1613	2577
1613	2603
1613	3735
1614	1661
1614	1698
1614	2710
1614	3210
1614	4293
1614	4299
1614	4715
1614	4946
1615	1622
1615	2129
1615	2544
1615	2579
1615	2699
1615	2864
1615	3376
1615	3912
1615	4212
1615	4317
1615	4472
1615	4589
1615	4780
1615	4795
1616	2210
1616	2403
1616	2622
1616	2902
1616	3550
1616	3949
1616	4444
1616	4481
1616	4707
1616	4846
1617	2194
1617	2380
1617	2586
1617	4604
1617	4840
1618	2538
1618	2875
1618	2992
1618	3029
1618	3185
1618	4347
1618	4407
1619	3858
1619	3941
1619	4753
1620	1742
1620	2049
1620	2232
1620	2337
1620	3103
1620	3825
1620	4120
1620	4325
1620	4580
1621	1743
1621	3340
1621	3508
1622	1824
1622	1990
1622	2039
1622	2296
1622	2364
1622	2504
1622	2647
1622	2668
1622	3991
1622	4375
1622	4591
1622	4645
1623	2033
1623	2752
1623	2977
1623	3041
1623	3132
1623	3260
1623	3439
1623	3538
1623	3703
1623	3934
1623	4091
1623	4141
1623	4192
1623	4287
1623	4447
1623	4736
1623	4858
1624	1645
1624	1722
1624	2001
1624	2808
1624	2816
1624	3188
1624	3297
1624	3541
1624	3650
1624	3816
1624	3976
1624	4179
1624	4679
1624	4915
1625	1835
1625	1893
1625	2778
1625	2802
1625	4127
1625	4152
1625	4821
1626	1678
1626	1791
1626	1999
1626	2300
1626	2312
1626	2454
1626	2952
1626	4178
1626	4256
1626	4791
1627	1637
1627	1752
1627	1781
1627	1802
1627	2014
1627	2350
1627	2957
1627	3097
1627	3335
1627	3374
1627	3499
1627	3903
1627	4119
1627	4261
1627	4482
1627	4528
1628	1827
1628	2226
1628	3487
1628	4173
1628	4280
1629	2023
1629	2068
1629	2202
1629	2305
1629	2681
1629	2813
1629	3189
1629	3190
1629	3408
1629	3534
1629	3766
1629	4073
1629	4135
1629	4697
1629	4921
1630	1828
1630	2021
1630	2111
1630	2177
1630	2604
1630	3317
1630	3528
1630	3944
1630	4011
1630	4083
1630	4086
1630	4322
1630	4516
1630	4767
1630	4976
1631	1729
1631	1970
1631	2066
1631	2158
1631	2189
1631	2304
1631	3486
1631	3658
1631	4177
1631	4286
1631	4977
1632	2351
1632	3782
1632	3960
1632	4407
1632	4694
1633	1655
1633	2064
1633	2761
1633	3080
1633	3231
1633	3528
1633	3940
1633	4006
1633	4293
1633	4393
1634	1728
1634	1801
1634	2303
1634	2350
1634	2852
1634	3222
1634	3648
1634	3713
1634	3881
1634	4033
1635	1673
1635	1715
1635	1820
1635	1849
1635	1861
1635	1914
1635	2205
1635	2206
1635	2289
1635	2290
1635	2471
1635	2522
1635	2564
1635	2675
1635	3092
1635	3307
1635	3599
1635	3705
1635	3723
1635	3896
1635	4163
1635	4280
1635	4968
1636	1667
1636	1900
1636	2438
1636	2442
1636	2631
1636	2732
1637	2156
1637	2491
1637	2684
1637	2694
1637	3064
1637	3081
1637	3313
1637	3826
1637	4708
1638	1661
1638	1711
1638	1807
1638	2026
1638	2638
1638	3516
1638	4130
1638	4258
1639	1726
1639	1919
1639	2026
1639	2726
1639	2775
1639	3039
1639	3297
1639	3411
1639	3929
1639	4002
1639	4102
1639	4239
1639	4439
1639	4586
1639	4771
1640	1908
1640	1998
1640	2753
1640	2970
1640	3794
1640	4388
1641	1764
1641	2369
1641	2437
1641	2448
1641	2641
1641	3207
1641	3418
1642	1673
1642	2128
1642	2249
1642	2266
1642	2308
1642	2439
1642	2726
1642	3771
1643	1741
1643	2661
1643	2811
1643	2863
1643	3537
1643	4687
1644	1680
1644	1896
1644	1951
1644	2430
1644	2539
1644	2760
1644	3309
1644	3523
1644	3626
1645	1854
1645	1976
1645	2043
1645	2166
1645	2291
1645	2683
1645	2833
1645	2924
1645	3082
1645	3373
1645	3616
1645	3658
1645	3668
1645	4190
1645	4350
1645	4579
1645	4941
1646	1797
1646	1897
1646	2338
1646	2818
1646	3049
1646	3173
1646	3208
1646	3287
1646	3574
1646	3735
1646	3768
1646	3971
1646	4515
1647	1698
1647	2378
1647	2664
1647	3059
1647	3088
1647	3532
1647	3634
1647	4456
1647	4683
1648	2079
1648	2318
1648	2548
1648	2814
1648	3865
1648	3970
1648	4197
1648	4581
1648	4781
1648	4829
1648	4891
1648	4960
1649	1838
1649	2642
1649	2798
1649	3271
1649	3357
1649	4513
1649	4985
1650	1841
1650	3025
1650	3274
1650	3991
1650	4223
1650	4726
1651	1720
1651	1761
1651	2265
1651	2351
1651	2392
1651	2725
1651	2932
1651	3000
1651	3031
1651	3201
1651	3584
1651	4356
1651	4476
1651	4520
1651	4664
1652	1756
1652	1910
1652	3157
1652	3192
1652	4186
1652	4266
1652	4663
1653	1760
1653	2026
1653	2319
1653	2605
1653	2772
1653	3055
1653	4618
1654	1675
1654	1703
1654	1928
1654	2089
1654	2176
1654	2177
1654	2256
1654	2679
1654	3108
1654	3127
1654	3150
1654	3449
1654	3696
1654	3765
1654	3768
1654	3949
1654	4115
1654	4178
1654	4201
1654	4421
1654	4530
1654	4548
1654	4560
1654	4897
1655	1671
1655	4537
1655	4917
1656	1743
1656	1860
1656	1893
1656	1983
1656	2048
1656	2150
1656	2800
1656	3074
1656	3394
1656	3417
1656	3446
1656	3518
1656	3677
1656	4688
1656	4708
1656	4884
1657	1676
1657	1764
1657	1842
1657	2083
1657	2301
1657	2507
1657	2648
1657	3328
1657	3475
1657	3496
1657	3713
1657	3828
1657	3860
1657	3973
1657	4196
1658	1852
1658	2025
1658	2166
1658	2208
1658	2392
1658	2708
1658	2879
1658	2997
1658	3020
1658	3108
1658	3473
1658	3576
1658	3871
1658	4124
1658	4303
1658	4450
1658	4550
1658	4929
1659	1728
1659	1856
1659	2295
1659	2310
1659	2609
1659	3326
1659	3616
1659	4082
1659	4214
1659	4648
1659	4745
1659	4748
1660	2545
1660	2562
1660	3213
1660	3219
1660	3974
1660	4567
1661	1743
1661	1751
1661	1886
1661	2556
1661	2826
1661	3283
1662	1672
1662	1885
1662	2094
1662	2267
1662	2269
1662	2330
1662	3483
1662	3553
1662	3693
1662	3724
1662	3776
1662	3832
1662	4239
1663	1783
1663	2267
1663	2300
1663	2381
1663	2594
1663	2930
1663	2979
1663	3035
1663	3761
1663	4437
1663	4737
1663	4836
1664	2209
1664	2369
1664	2447
1664	2537
1664	2703
1664	2821
1664	2835
1664	3035
1664	3288
1664	3352
1664	3842
1664	3877
1664	4805
1664	4926
1664	4927
1665	1873
1665	2395
1665	2490
1665	2568
1665	2865
1665	2903
1665	2912
1665	3132
1665	3137
1665	3623
1665	3688
1665	3842
1665	4077
1665	4641
1665	4666
1665	4788
1665	4841
1666	1693
1666	2131
1666	2134
1666	2137
1666	2536
1666	3127
1666	3128
1666	3768
1666	4059
1666	4095
1666	4269
1666	4338
1666	4406
1666	4561
1666	4567
1667	4248
1667	4992
1668	1831
1668	1911
1668	1936
1668	2158
1668	2266
1668	2288
1668	2397
1668	2442
1668	2681
1668	2720
1668	2824
1668	2972
1668	3028
1668	3241
1668	3618
1668	3772
1668	3900
1668	4079
1668	4442
1668	4657
1668	4705
1668	4943
1669	1684
1669	1696
1669	1719
1669	1825
1669	1881
1669	1907
1669	2068
1669	2401
1669	2559
1669	2566
1669	2663
1669	2694
1669	2732
1669	3475
1669	3516
1669	3793
1669	4137
1669	4854
1669	4858
1670	1701
1670	2050
1670	2391
1670	2439
1670	2507
1670	2882
1670	3317
1670	3934
1670	3985
1670	4125
1670	4507
1671	1781
1671	1948
1671	1961
1671	2030
1671	2353
1671	2605
1671	2885
1671	3625
1671	4415
1671	4584
1671	4877
1672	1930
1672	2083
1672	3483
1672	3604
1672	3902
1672	4391
1673	1732
1673	2692
1673	3047
1673	3783
1673	4545
1673	4957
1674	2120
1674	2160
1674	2210
1674	2276
1674	2577
1674	2589
1674	2738
1674	2883
1674	2895
1674	2924
1674	2937
1674	2943
1674	3163
1674	3481
1674	3863
1674	4354
1674	4873
1675	1835
1675	2330
1675	2572
1675	2648
1675	3404
1675	3476
1675	3736
1675	4063
1675	4602
1676	2241
1676	2258
1676	2985
1676	3143
1676	3801
1676	3947
1676	4170
1676	4287
1676	4463
1676	4559
1677	1777
1677	1847
1677	1885
1677	1917
1677	1957
1677	2325
1677	2480
1677	2820
1677	3455
1677	3545
1677	3657
1677	4196
1677	4397
1677	4780
1677	4896
1677	4996
1678	1794
1678	2029
1678	2233
1678	2264
1678	3199
1678	3844
1678	3989
1678	4663
1678	4828
1679	1922
1679	1940
1679	2012
1679	2129
1679	2327
1679	3329
1679	3681
1679	3989
1679	4124
1679	4412
1679	4506
1679	4657
1680	1780
1680	1864
1680	2016
1680	2076
1680	2264
1680	2289
1680	2563
1680	2605
1680	2826
1680	3227
1680	3402
1680	3492
1680	3571
1680	3635
1680	3830
1680	4245
1680	4373
1680	4490
1680	4797
1681	1835
1681	1864
1681	1954
1681	2007
1681	2144
1681	2224
1681	2327
1681	2464
1681	2812
1681	2864
1681	3538
1681	3802
1681	4152
1681	4182
1681	4418
1681	4512
1682	1694
1682	1769
1682	2263
1682	2658
1682	2826
1682	2831
1682	3731
1682	4577
1682	4692
1683	2372
1683	2384
1683	2415
1683	2696
1683	3843
1683	4191
1683	4581
1683	4602
1683	4993
1684	1896
1684	2004
1684	2287
1684	2334
1684	2802
1684	3135
1684	3504
1684	4295
1684	4814
1684	4843
1685	1778
1685	1863
1685	1886
1685	2325
1685	2527
1685	3058
1685	3134
1685	3318
1685	3468
1685	3713
1685	4080
1685	4590
1685	4619
1686	1695
1686	2721
1686	2907
1686	3152
1686	3250
1686	3333
1686	3499
1686	3533
1686	4603
1686	4879
1686	4989
1687	1688
1687	1697
1687	2688
1687	3105
1687	3210
1687	3527
1687	3984
1687	4302
1687	4531
1687	4669
1688	2125
1688	2791
1688	3046
1688	3108
1688	3230
1688	3259
1688	3607
1688	3938
1688	4051
1688	4816
1689	1865
1689	2268
1689	2286
1689	2437
1689	2750
1689	3011
1689	3244
1689	3404
1689	3462
1689	3670
1689	4382
1690	1736
1690	1918
1690	2016
1690	2543
1690	3482
1690	3672
1690	3920
1690	4617
1690	4895
1691	2022
1691	2287
1691	3523
1691	4072
1691	4359
1691	4908
1692	1727
1692	1769
1692	2770
1692	2802
1692	3201
1692	3442
1692	4162
1692	4313
1692	4400
1692	4845
1692	4965
1693	1722
1693	1845
1693	2157
1693	2204
1693	2904
1693	3271
1693	4383
1693	4697
1693	4776
1694	1918
1694	2230
1694	2715
1694	2745
1694	3321
1694	3450
1694	3457
1694	3774
1694	3926
1694	4559
1694	4706
1695	1866
1695	2467
1695	2544
1695	3631
1695	3727
1696	1986
1696	2231
1696	2828
1696	2842
1696	2939
1696	3093
1696	3180
1696	3258
1696	3477
1696	4915
1697	1877
1697	2320
1697	2385
1697	3891
1697	4146
1697	4267
1697	4269
1697	4678
1697	4681
1698	2040
1698	2200
1698	2299
1698	2432
1698	2668
1698	2776
1698	2907
1698	3077
1698	3185
1698	3339
1698	3444
1698	4023
1698	4026
1698	4375
1698	4393
1698	4635
1698	4651
1698	4877
1699	1904
1699	2511
1699	2638
1699	2838
1699	2992
1699	3226
1699	3930
1700	1738
1700	1781
1700	1808
1700	1824
1700	2098
1700	2434
1700	2457
1700	2605
1700	3303
1700	4040
1700	4622
1701	2029
1701	2919
1701	2988
1701	3113
1701	4263
1701	4838
1702	1866
1702	1928
1702	2071
1702	2106
1702	2349
1702	2435
1702	2549
1702	2632
1702	2727
1702	2987
1702	3003
1702	3137
1702	3242
1702	3371
1702	3841
1702	3920
1702	4143
1702	4716
1703	2132
1703	2893
1703	2900
1703	3234
1703	3259
1703	4640
1703	4772
1704	1712
1704	1961
1704	2258
1704	2579
1704	2605
1704	2774
1704	3101
1704	3497
1704	3518
1704	4147
1704	4456
1704	4708
1705	2032
1705	2140
1705	2388
1705	2587
1705	2680
1705	2717
1705	3277
1705	3383
1705	3502
1705	3622
1705	4007
1705	4626
1706	1911
1706	1976
1706	2074
1706	2535
1706	2539
1706	2613
1706	2722
1706	3120
1706	3183
1706	3519
1706	3547
1706	3626
1706	3902
1706	4339
1706	4990
1707	1766
1707	1816
1707	1827
1707	2390
1707	2446
1707	2646
1707	2679
1707	2760
1707	2902
1707	3030
1707	3147
1707	4400
1707	4613
1708	2695
1708	2750
1708	3558
1708	3679
1708	3874
1708	4623
1708	4914
1709	1812
1709	1871
1709	2202
1709	2284
1709	2515
1709	2674
1709	3084
1709	3869
1709	3948
1709	3981
1709	4072
1709	4267
1710	1784
1710	2304
1710	2354
1710	2680
1710	2770
1710	3309
1710	3685
1711	1808
1711	1902
1711	2266
1711	2361
1711	2669
1711	2927
1711	3087
1711	3197
1711	3241
1711	3709
1711	3824
1711	3959
1711	4111
1712	1855
1712	2314
1712	2471
1712	2772
1712	4087
1712	4425
1712	4465
1713	2178
1713	2442
1713	2707
1713	3154
1713	3223
1713	3267
1713	3289
1713	3599
1713	3752
1714	1727
1714	2028
1714	2118
1714	2274
1714	2506
1714	2653
1714	3463
1714	3894
1714	4073
1714	4223
1714	4227
1714	4608
1714	4861
1714	4948
1715	1799
1715	2200
1715	2306
1715	2688
1715	3035
1715	3852
1716	1829
1716	1961
1716	2004
1716	2170
1716	2261
1716	2293
1716	2496
1716	2710
1716	3148
1716	3153
1716	3460
1716	3520
1716	3958
1716	4037
1716	4346
1716	4545
1716	4691
1717	1764
1717	1795
1717	2052
1717	2458
1717	3122
1717	3124
1717	3137
1717	4183
1717	4198
1717	4237
1717	4334
1717	4552
1717	4961
1717	4976
1718	2207
1718	2376
1718	2656
1718	2739
1718	3043
1718	3762
1718	4487
1719	2484
1719	2680
1719	2893
1719	3404
1719	4153
1720	1846
1720	2088
1720	2508
1720	2829
1720	3024
1720	3086
1720	3262
1720	3320
1720	3461
1720	3569
1720	3621
1720	3904
1720	3936
1720	4465
1720	4726
1721	1793
1721	1912
1721	2074
1721	2248
1721	2890
1721	2937
1721	2954
1721	3422
1721	4308
1721	4426
1721	4444
1721	4533
1721	4939
1722	1773
1722	2052
1722	2055
1722	2124
1722	2157
1722	2451
1722	2593
1722	2917
1722	3390
1722	3788
1722	3875
1722	4659
1723	1853
1723	2049
1723	2216
1723	3038
1723	3110
1723	3272
1723	3360
1723	3429
1723	3513
1723	4029
1723	4031
1723	4271
1723	4496
1723	4681
1723	4729
1724	2076
1724	2104
1724	2179
1724	2211
1724	2413
1724	2692
1724	2795
1724	2870
1724	3093
1724	3342
1724	3357
1724	3685
1724	3694
1724	3769
1724	4038
1724	4064
1724	4394
1724	4495
1724	4553
1724	4558
1724	4646
1724	4794
1724	4853
1725	1748
1725	2487
1725	2966
1725	3088
1725	3900
1726	2396
1726	2731
1726	3140
1726	4278
1726	4495
1727	2015
1727	2273
1727	2832
1727	2926
1727	4082
1727	4579
1727	4613
1727	4628
1728	1768
1728	1827
1728	2245
1728	2389
1728	2401
1728	2806
1728	2967
1728	2996
1728	3040
1728	3093
1728	3476
1728	3571
1728	3618
1728	4391
1728	4446
1728	4596
1728	4698
1729	3110
1729	3115
1729	3160
1729	4035
1729	4072
1729	4100
1729	4656
1730	2946
1730	3009
1730	3853
1730	4712
1731	1900
1731	2347
1731	2452
1731	2487
1731	2602
1731	3013
1731	3022
1731	3147
1731	3163
1731	3588
1731	3728
1731	3920
1731	4011
1731	4151
1731	4165
1731	4219
1731	4302
1732	1739
1732	1871
1732	1912
1732	2014
1732	2459
1732	2471
1732	2472
1732	2908
1732	3774
1732	3919
1733	1781
1733	2000
1733	2097
1733	2917
1733	2950
1733	3584
1733	3879
1734	1777
1734	2083
1734	2103
1734	3071
1734	3383
1734	4041
1734	4583
1734	4640
1734	4817
1735	2038
1735	2336
1735	2709
1735	2967
1735	3266
1735	3931
1735	3987
1735	4597
1735	4604
1735	4625
1735	4945
1736	1790
1736	1833
1736	1932
1736	2064
1736	2650
1736	2719
1736	2729
1736	2850
1736	2939
1736	2959
1736	2980
1736	3053
1736	3148
1736	3254
1736	3547
1736	4076
1736	4236
1736	4532
1736	4651
1736	4705
1737	1813
1737	1828
1737	1960
1737	2108
1737	2369
1737	2581
1737	3238
1737	3259
1737	3769
1737	4950
1738	2015
1738	2545
1738	2729
1738	2841
1738	3169
1738	3345
1738	3480
1738	4132
1739	1970
1739	2375
1739	3618
1739	3838
1739	4480
1739	4860
1740	1843
1740	1928
1740	2188
1740	2628
1740	2990
1740	2993
1740	3039
1740	3861
1740	4375
1740	4429
1740	4578
1740	4737
1741	2224
1741	2278
1741	2485
1741	2629
1741	2983
1741	3609
1741	4233
1741	4289
1741	4841
1741	4851
1741	4949
1742	2261
1742	2350
1742	2545
1742	3590
1742	4951
1743	1858
1743	3357
1743	3420
1743	3486
1743	3487
1743	4042
1744	2510
1744	2793
1744	2974
1744	2988
1744	3173
1744	3298
1744	4019
1744	4595
1745	2462
1745	2642
1745	2694
1745	3050
1745	3169
1745	3225
1745	3546
1746	1929
1746	2051
1746	2121
1746	2495
1746	2513
1746	2600
1746	2650
1746	2701
1746	3441
1746	3965
1746	4311
1746	4331
1746	4684
1747	2025
1747	2254
1747	2461
1747	2509
1747	2803
1747	3147
1747	3222
1747	3517
1747	3625
1747	4407
1747	4490
1747	4576
1747	4966
1748	1828
1748	2266
1748	2484
1748	2835
1748	3196
1748	3228
1748	3348
1748	3376
1748	3574
1748	3918
1748	4144
1748	4440
1748	4651
1749	1776
1749	1941
1749	2224
1749	2252
1749	2378
1749	2705
1749	4060
1749	4789
1749	4797
1750	2096
1750	2758
1750	3389
1750	3452
1750	3624
1750	3898
1750	4157
1750	4184
1750	4807
1751	2473
1751	3252
1751	3744
1751	3837
1751	3862
1751	4207
1751	4211
1751	4440
1751	4606
1751	4980
1752	1905
1752	1967
1752	2237
1752	2271
1752	2293
1752	2333
1752	2483
1752	2808
1752	2987
1752	3962
1752	4086
1752	4137
1752	4326
1752	4840
1753	2379
1753	2488
1753	2968
1753	3098
1753	3226
1753	3327
1753	3341
1753	3349
1753	3763
1753	4127
1754	2405
1754	2606
1754	2787
1754	3400
1754	3515
1754	3671
1754	4296
1754	4448
1754	4510
1754	4940
1755	1817
1755	1980
1755	2308
1755	2676
1755	3208
1755	3849
1755	4982
1756	1788
1756	1989
1756	2512
1756	2591
1756	2637
1756	3371
1756	4048
1756	4792
1757	2395
1757	2534
1757	2537
1757	2595
1757	2996
1757	3783
1757	3834
1757	4036
1757	4898
1758	1767
1758	2004
1758	2310
1758	2331
1758	2346
1758	2734
1758	3016
1758	3209
1758	3313
1758	3880
1758	4211
1758	4305
1758	4500
1758	4798
1759	1926
1759	2775
1759	2831
1759	3581
1759	3804
1759	3963
1759	4084
1759	4530
1759	4576
1759	4943
1760	2743
1760	3078
1760	4244
1760	4708
1760	4845
1761	1958
1761	2254
1761	2426
1761	2710
1761	3365
1761	3600
1761	3928
1761	3931
1761	4810
1761	4913
1762	2095
1762	2462
1762	2681
1762	2866
1762	3705
1762	3906
1763	1971
1763	2346
1763	2422
1763	2435
1763	2524
1763	2530
1763	2634
1763	3104
1763	3123
1763	3454
1763	3673
1763	3776
1763	4106
1763	4207
1763	4547
1763	4896
1764	2136
1764	2270
1764	2280
1764	2360
1764	2645
1764	2686
1764	2945
1764	3829
1764	3942
1764	4383
1764	4560
1764	4771
1765	1996
1765	2169
1765	2247
1765	2342
1765	2547
1765	2938
1765	3327
1765	3496
1765	3650
1765	4052
1765	4113
1765	4217
1765	4323
1765	4379
1766	2236
1766	2705
1766	2720
1766	3003
1766	3113
1766	3255
1766	3266
1766	3560
1766	3880
1766	4311
1766	4391
1767	2395
1767	2664
1767	3012
1767	3025
1767	3345
1767	4027
1767	4793
1768	2140
1768	2536
1768	2785
1768	2919
1768	3324
1768	3567
1768	4030
1768	4285
1768	4547
1769	2322
1769	3425
1770	2156
1770	2170
1770	2363
1770	2502
1770	2854
1770	2938
1770	3074
1770	3115
1770	3212
1770	3216
1770	3364
1770	3386
1770	3440
1770	3489
1770	3563
1770	3720
1770	3741
1770	3940
1770	3956
1770	3999
1770	4152
1770	4463
1770	4566
1770	4626
1770	4785
1771	1866
1771	1918
1771	2071
1771	2119
1771	2327
1771	2558
1771	2941
1771	2956
1771	3016
1771	3759
1771	4434
1771	4674
1771	4715
1771	4808
1772	2480
1772	2659
1772	2705
1772	3142
1772	3382
1772	3893
1772	3993
1772	4178
1773	2449
1773	2595
1773	2625
1773	2665
1773	2875
1773	3358
1773	3382
1773	4321
1773	4431
1774	1782
1774	1934
1774	1973
1774	2172
1774	2274
1774	2652
1774	2842
1774	2858
1774	2869
1774	3097
1774	3350
1775	2000
1775	2302
1775	2511
1775	3685
1775	3938
1776	1797
1776	2085
1776	2090
1776	2611
1776	2643
1776	2655
1776	2816
1776	2837
1776	2977
1776	3088
1776	3346
1776	3628
1776	3797
1776	4059
1776	4076
1776	4179
1776	4538
1776	4644
1776	4766
1777	2699
1777	2733
1777	3322
1777	3515
1777	3646
1777	3664
1777	3949
1777	4108
1777	4966
1778	1895
1778	2015
1778	2385
1778	2577
1778	3745
1778	3787
1778	4095
1778	4433
1778	4499
1778	4550
1778	4926
1779	1914
1779	2172
1779	2477
1779	2675
1779	2880
1779	4201
1779	4210
1779	4291
1780	1800
1780	1860
1780	1985
1780	2312
1780	2767
1780	3485
1780	4449
1781	1819
1781	1843
1781	1865
1781	1996
1781	2112
1781	3186
1781	3347
1781	3355
1781	3501
1781	3581
1781	4031
1781	4064
1781	4353
1781	4401
1781	4429
1781	4875
1782	1853
1782	1984
1782	2501
1782	2672
1782	3735
1782	4088
1782	4219
1783	1810
1783	1865
1783	1967
1783	2292
1783	2476
1783	2552
1783	2643
1783	3128
1783	3170
1783	3264
1783	3891
1783	4099
1784	2028
1784	2072
1784	2616
1784	2660
1784	4045
1784	4813
1785	1883
1785	2463
1785	3023
1785	3049
1785	4279
1785	4302
1785	4877
1786	2222
1786	2415
1786	3014
1786	3573
1786	3726
1786	4872
1787	1899
1787	2141
1787	2404
1787	2405
1787	2657
1787	3369
1787	3431
1787	3632
1787	4628
1788	1813
1788	2004
1788	2040
1788	2050
1788	2155
1788	2309
1788	3125
1788	3203
1788	3408
1788	3697
1788	4092
1788	4183
1788	4247
1788	4351
1788	4472
1788	4777
1789	2342
1789	2597
1789	2623
1789	2678
1789	2805
1789	3494
1789	3634
1789	3640
1789	4150
1789	4558
1789	4803
1789	4854
1790	1931
1790	2272
1790	2610
1790	2769
1790	2783
1790	2891
1790	3297
1790	3341
1790	3494
1790	3604
1790	3797
1791	2209
1791	2325
1791	2567
1791	2585
1791	3343
1791	4094
1791	4839
1791	4958
1792	1808
1792	1970
1792	2394
1792	2821
1792	3015
1792	4258
1792	4955
1793	2046
1793	2051
1793	2111
1793	2133
1793	2174
1793	2466
1793	2557
1793	2674
1793	2726
1793	3532
1793	3565
1793	3576
1793	3742
1793	3875
1793	4184
1793	4387
1793	4693
1794	1937
1794	3080
1794	3245
1794	3887
1795	1887
1795	2434
1795	2728
1795	3057
1795	3710
1795	4567
1795	4575
1796	2198
1796	3144
1796	3192
1796	3251
1796	3489
1796	3572
1796	3664
1796	3938
1796	4413
1796	4502
1796	4924
1797	1806
1797	2230
1797	2232
1797	2250
1797	2255
1797	2391
1797	2954
1797	3109
1797	3311
1797	3546
1797	3744
1797	3771
1797	4403
1797	4457
1797	4571
1797	4759
1797	4803
1798	1854
1798	1890
1798	1902
1798	1966
1798	1975
1798	2381
1798	2900
1798	3007
1798	3634
1798	3640
1798	4317
1798	4619
1799	1804
1799	2104
1799	2187
1799	2235
1799	2297
1799	2489
1799	2984
1799	3560
1799	4373
1799	4447
1799	4937
1800	1858
1800	1952
1800	2348
1800	2401
1800	2453
1800	2660
1800	3207
1800	3296
1800	3308
1800	3658
1800	3898
1800	4011
1800	4274
1800	4455
1800	4564
1800	4583
1800	4905
1801	2297
1801	3196
1801	3724
1801	3903
1801	4059
1801	4636
1801	4713
1801	4785
1802	2117
1802	2176
1802	2223
1802	2271
1802	2454
1802	2782
1802	3641
1802	3743
1802	4066
1802	4229
1802	4355
1803	1843
1803	2164
1803	2628
1803	2887
1803	3343
1803	3717
1803	3908
1803	4580
1803	4927
1803	4971
1804	2041
1804	2557
1804	3287
1804	4814
1804	4880
1805	2625
1805	2628
1805	2733
1805	2868
1805	3045
1805	3374
1805	3382
1805	4566
1805	4744
1805	4822
1805	4875
1806	2289
1806	2709
1806	3093
1806	3585
1806	3799
1806	4408
1807	1919
1807	1988
1807	2090
1807	2549
1807	2608
1807	2626
1807	2837
1807	3097
1807	3189
1807	3201
1807	3289
1807	4177
1807	4505
1808	1893
1808	2273
1808	2354
1808	2359
1808	2428
1808	2430
1808	2570
1808	2871
1808	3136
1808	3278
1808	3558
1808	3983
1808	4740
1809	2033
1809	2384
1809	2708
1809	2781
1809	2784
1809	2973
1809	4245
1809	4458
1809	4560
1809	4845
1809	4854
1810	1872
1810	2061
1810	2133
1810	2524
1810	3024
1810	3192
1810	3221
1810	3425
1810	3503
1810	3518
1810	3763
1811	2299
1811	2601
1811	2736
1811	2787
1811	3578
1811	3997
1811	4197
1811	4226
1811	4655
1812	1884
1812	1929
1812	2554
1812	3004
1812	3165
1812	3245
1812	3295
1812	3534
1812	4186
1812	4846
1813	2005
1813	2438
1813	2505
1813	2874
1813	3574
1813	3946
1813	4972
1814	1846
1814	2008
1814	2056
1814	2132
1814	2624
1814	2743
1814	2911
1814	3204
1814	3300
1814	3791
1814	4202
1814	4383
1814	4801
1815	1936
1815	2589
1815	2766
1815	2816
1815	2836
1816	2192
1816	3279
1816	3439
1816	3626
1816	3741
1816	3961
1816	4533
1817	2416
1817	2574
1817	3569
1817	4403
1817	4649
1817	4758
1817	4802
1818	2125
1818	2449
1818	2498
1818	2665
1818	2986
1818	3007
1818	3641
1818	3705
1818	3757
1818	4332
1818	4707
1819	1839
1819	2124
1819	2681
1819	2768
1819	2888
1819	2973
1819	3023
1819	3092
1819	3374
1819	4037
1819	4865
1819	4927
1820	1975
1820	2446
1820	2602
1820	2650
1820	2698
1820	3081
1820	3446
1820	3517
1820	3543
1820	3849
1820	4176
1820	4529
1820	4964
1821	1887
1821	2304
1821	2389
1821	2912
1821	3336
1821	4000
1821	4217
1821	4331
1821	4565
1821	4798
1822	2007
1822	2016
1822	2436
1822	2685
1822	2719
1822	2787
1822	3132
1822	3312
1822	3490
1823	1834
1823	2366
1823	2675
1823	3547
1823	3614
1823	3648
1823	3673
1823	3760
1823	4234
1823	4466
1823	4490
1823	4921
1824	1862
1824	1995
1824	2777
1824	3129
1824	3246
1824	3376
1824	3428
1824	3616
1824	3809
1824	3938
1824	3947
1824	4005
1824	4158
1824	4263
1824	4371
1824	4735
1824	4935
1825	1916
1825	2273
1825	2481
1825	2613
1825	2730
1825	2877
1825	3270
1825	3433
1825	3591
1825	3809
1825	3815
1825	4216
1826	2055
1826	2400
1826	2645
1826	4227
1827	2032
1827	2301
1827	2614
1827	2902
1827	2943
1827	3054
1827	3081
1827	3125
1827	3166
1827	3174
1827	3264
1827	3365
1827	3387
1827	3489
1827	3514
1827	3691
1827	4513
1827	4662
1828	2074
1828	2166
1828	2367
1828	3670
1828	3838
1828	3948
1828	4543
1829	2099
1829	2258
1829	2704
1829	3037
1829	3081
1829	3308
1829	4097
1829	4187
1829	4368
1830	2495
1830	2571
1830	3025
1830	3038
1830	3269
1830	3860
1830	3935
1830	4228
1830	4628
1830	4639
1830	4840
1831	1901
1831	2052
1831	3355
1831	4356
1832	2265
1832	2321
1832	2375
1832	2587
1832	2734
1832	2755
1832	2809
1832	3016
1832	3062
1832	3425
1832	3530
1832	3755
1832	3783
1832	4033
1832	4049
1832	4312
1832	4468
1832	4579
1832	4778
1833	2450
1833	2827
1833	3023
1833	3187
1833	3311
1833	4123
1833	4126
1833	4365
1834	1877
1834	2234
1834	2284
1834	2620
1834	3381
1834	3552
1834	3758
1834	3764
1834	4598
1834	4744
1834	4887
1835	2333
1835	2349
1835	3286
1835	3361
1835	3962
1835	4235
1835	4538
1836	2191
1836	2325
1836	2531
1836	2626
1836	2689
1836	3179
1836	3290
1836	4102
1836	4596
1837	2173
1837	2219
1837	2991
1837	3056
1837	3088
1837	3374
1837	3495
1837	3806
1837	4335
1837	4498
1837	4510
1837	4855
1837	4912
1838	2074
1838	2326
1838	2362
1838	2761
1838	3333
1838	3747
1838	3854
1838	4030
1838	4241
1838	4328
1839	1850
1839	2433
1839	2821
1839	2937
1839	3127
1839	3247
1839	3818
1839	4185
1839	4261
1839	4265
1839	4329
1839	4946
1840	1908
1840	2243
1840	2439
1840	2444
1840	2528
1840	2869
1840	3144
1840	3392
1840	3450
1840	3623
1840	3626
1840	3775
1840	3937
1840	4170
1840	4290
1840	4324
1840	4756
1841	2519
1841	3452
1841	3485
1841	3621
1841	3657
1841	3952
1841	4082
1841	4212
1841	4250
1841	4273
1841	4674
1842	2389
1842	2493
1842	2560
1842	2772
1842	3707
1842	4195
1842	4458
1843	2273
1843	2280
1843	2550
1843	2788
1843	2792
1843	3200
1843	3219
1843	3868
1843	4466
1843	4988
1844	1856
1844	2233
1844	2246
1844	2295
1844	2414
1844	2749
1844	3153
1844	3176
1844	3357
1844	3804
1844	3956
1845	2212
1845	2477
1845	3777
1845	4489
1845	4905
1846	2522
1846	3051
1846	3130
1846	3618
1846	4555
1847	1864
1847	1940
1847	2061
1847	2150
1847	2393
1847	2920
1847	3655
1847	3884
1847	4389
1847	4938
1847	4945
1848	1981
1848	3245
1848	3296
1848	4152
1848	4746
1849	2021
1849	2306
1849	2433
1849	2437
1849	2612
1849	2691
1849	2936
1849	3940
1849	4106
1849	4455
1850	1888
1850	1922
1850	1942
1850	2106
1850	2387
1850	3627
1850	3633
1850	4205
1850	4241
1850	4699
1850	4827
1851	1992
1851	2182
1851	2198
1851	4230
1851	4551
1851	4654
1851	4892
1851	4918
1852	1855
1852	2642
1852	3080
1852	3368
1852	3877
1852	4384
1852	4601
1853	2154
1853	2217
1853	2597
1853	2599
1853	2950
1853	2991
1853	3000
1853	3239
1853	3442
1853	3912
1853	3992
1853	4211
1853	4897
1854	1969
1854	2276
1854	2375
1854	2417
1854	2602
1854	4387
1854	4771
1854	4790
1855	1959
1855	2211
1855	2500
1855	2572
1855	2654
1855	2974
1855	3059
1855	3079
1855	3566
1855	3708
1855	3987
1855	4308
1855	4537
1855	4830
1855	4964
1856	2010
1856	2266
1856	2275
1856	2748
1856	3292
1856	3669
1856	3966
1856	4061
1856	4476
1856	4762
1856	4780
1856	4914
1857	1899
1857	2374
1857	2574
1857	2756
1857	3607
1857	3749
1857	3851
1857	4661
1857	4887
1858	2202
1858	2291
1858	2495
1858	3028
1858	3085
1858	3205
1858	3221
1858	3236
1858	3330
1858	3441
1858	4528
1858	4542
1859	1886
1859	1997
1859	2222
1859	2543
1859	2673
1859	3114
1859	3412
1859	4298
1859	4498
1859	4919
1860	2301
1860	2339
1860	2432
1860	3112
1860	3509
1860	3554
1860	3682
1860	4198
1860	4435
1861	1940
1861	2308
1861	2860
1861	3347
1861	3357
1861	3389
1861	3647
1861	4136
1861	4414
1862	2143
1862	2165
1862	2466
1862	3078
1862	3668
1862	4502
1863	2244
1863	2424
1863	2465
1863	2857
1863	2879
1863	2915
1863	3041
1863	3212
1863	3261
1863	3281
1863	3669
1863	3686
1863	3698
1863	3806
1863	3808
1863	3918
1863	4360
1863	4649
1863	4729
1863	4778
1863	4961
1864	2287
1864	2741
1864	3075
1864	3312
1864	3350
1864	3376
1864	4731
1865	1976
1865	2479
1865	3547
1865	4100
1865	4326
1865	4345
1865	4627
1866	1948
1866	1951
1866	2104
1866	2518
1866	2554
1866	2886
1866	3788
1866	4429
1866	4715
1866	4720
1867	1987
1867	2524
1867	2719
1867	3900
1867	4819
1867	4957
1868	2200
1868	2244
1868	2265
1868	2399
1868	2535
1868	2549
1868	2576
1868	2719
1868	2722
1868	3182
1868	3332
1868	3417
1868	3451
1868	3994
1868	4092
1868	4155
1868	4165
1868	4509
1869	2043
1869	2076
1869	2107
1869	2188
1869	2595
1869	2949
1869	3236
1869	3291
1869	3479
1869	4029
1869	4041
1869	4073
1869	4578
1869	4611
1870	1905
1870	2018
1870	2219
1870	3036
1870	3198
1870	3704
1870	4245
1870	4333
1870	4357
1870	4435
1870	4871
1870	4973
1871	1874
1871	1922
1871	2017
1871	2106
1871	2439
1871	2787
1871	2954
1871	3299
1871	3441
1871	3700
1871	3919
1871	4281
1872	1906
1872	1952
1872	2068
1872	3086
1872	3130
1872	3202
1872	4097
1872	4241
1872	4858
1872	4873
1873	1874
1873	2025
1873	2050
1873	2244
1873	2361
1873	2417
1873	2802
1873	2980
1873	3070
1873	3388
1873	3525
1873	3747
1874	2262
1874	2487
1874	3111
1874	3157
1874	3749
1874	4189
1874	4208
1874	4710
1875	1909
1875	2115
1875	2190
1875	3505
1875	4448
1875	4935
1876	2482
1876	2649
1876	3119
1876	3311
1876	3424
1876	4023
1876	4241
1876	4341
1877	2041
1877	2311
1877	2756
1877	2848
1877	3352
1877	3464
1877	3492
1877	3804
1877	3908
1877	4020
1877	4058
1877	4119
1877	4305
1877	4322
1877	4927
1878	2099
1878	2460
1878	2531
1878	2843
1878	3143
1878	3397
1878	3543
1878	3704
1878	4079
1878	4335
1878	4799
1878	4886
1878	4984
1879	2343
1879	2490
1879	2806
1879	2910
1879	3283
1879	3872
1879	4719
1880	2628
1880	2687
1880	2729
1880	3152
1880	3287
1880	3469
1880	4743
1881	2033
1881	2180
1881	2737
1881	2989
1881	4215
1881	4261
1881	4925
1882	2566
1882	2587
1882	2876
1882	3536
1882	3650
1882	4105
1882	4275
1882	4662
1882	4971
1883	1951
1883	2203
1883	2613
1883	2710
1883	3306
1883	3656
1883	3729
1883	3863
1883	4183
1883	4312
1883	4779
1883	4903
1884	1985
1884	2304
1884	2436
1884	2643
1884	2961
1884	3534
1884	3569
1884	3765
1884	4471
1884	4814
1885	1980
1885	2193
1885	3394
1885	4031
1885	4851
1886	2259
1886	2363
1886	2600
1886	4329
1886	4486
1887	1903
1887	2279
1887	2430
1887	2640
1887	3023
1887	3107
1887	3291
1887	3529
1887	3583
1887	3612
1887	3909
1887	4065
1887	4110
1887	4440
1887	4647
1888	2371
1888	2853
1888	3365
1888	3405
1888	3640
1888	3860
1889	1981
1889	2220
1889	2233
1889	2933
1889	4966
1890	2176
1890	2410
1890	2493
1890	2669
1890	3181
1890	3975
1890	4041
1890	4264
1890	4366
1890	4386
1891	2117
1891	3344
1891	3964
1891	4917
1892	1934
1892	1955
1892	2015
1892	2309
1892	2398
1892	2553
1892	2833
1892	3815
1892	4250
1892	4947
1893	2065
1893	2070
1893	2204
1893	3197
1893	3844
1893	4268
1893	4429
1894	2084
1894	2090
1894	2340
1894	3120
1894	3339
1894	3536
1894	3702
1894	4553
1894	4747
1894	4925
1894	4956
1895	2470
1895	2483
1895	2672
1895	2987
1895	3693
1895	4524
1895	4676
1896	2602
1896	2651
1896	3426
1896	3536
1896	3567
1896	3625
1896	3910
1896	3930
1896	4007
1896	4365
1896	4755
1896	4810
1896	4942
1897	2705
1897	2757
1897	2983
1897	3210
1897	4532
1897	4614
1897	4878
1898	2020
1898	2440
1898	2923
1898	2941
1898	3236
1898	4398
1898	4607
1899	2242
1899	2332
1899	2449
1899	2983
1899	4146
1899	4175
1899	4392
1900	2525
1900	2670
1900	2950
1900	3430
1900	3771
1900	4026
1900	4098
1900	4965
1901	1943
1901	2061
1901	2728
1901	2729
1901	2942
1901	2943
1901	3624
1901	3751
1901	4745
1902	2045
1902	2925
1902	2948
1902	3105
1902	3219
1902	3256
1902	3396
1902	4131
1902	4153
1902	4848
1902	4989
1903	2224
1903	2408
1903	2420
1903	2712
1903	2717
1903	2767
1903	2845
1903	3004
1903	3466
1903	3854
1903	3937
1903	4026
1903	4416
1903	4924
1904	2020
1904	2096
1904	2362
1904	2431
1904	2981
1904	3071
1904	3454
1904	3666
1904	3816
1905	2287
1905	2563
1905	2734
1905	3131
1905	3187
1905	3223
1905	3475
1905	3924
1905	4297
1905	4377
1905	4412
1905	4806
1905	4889
1906	1910
1906	2562
1906	2707
1906	2938
1906	3003
1906	3637
1906	4884
1907	2122
1907	2176
1907	2178
1907	2294
1907	2418
1907	2489
1907	2724
1907	2811
1907	2974
1907	3079
1907	3111
1907	3620
1907	4342
1907	4475
1907	4648
1907	4842
1907	4992
1908	1921
1908	1940
1908	2073
1908	2765
1908	2876
1908	3438
1908	3509
1908	3564
1908	3624
1908	3751
1908	3886
1908	4020
1908	4252
1908	4279
1908	4460
1909	1988
1909	2105
1909	2260
1909	2293
1909	2580
1909	2689
1909	2929
1909	3045
1909	3157
1909	3320
1909	3876
1909	4261
1909	4263
1909	4405
1909	4516
1910	2282
1910	2391
1910	2914
1910	3133
1910	3570
1910	3575
1910	3687
1910	3738
1910	4179
1910	4724
1910	4998
1911	2234
1911	2241
1911	2719
1911	2769
1911	2896
1911	2951
1911	3854
1911	4048
1911	4755
1911	4814
1912	2179
1912	2352
1912	2643
1912	2777
1912	2845
1912	2894
1912	2969
1912	3056
1912	3205
1912	3344
1912	3870
1912	4000
1912	4164
1912	4273
1912	4500
1912	4768
1912	4789
1912	4972
1913	2297
1913	2479
1913	2626
1913	3043
1913	3273
1913	3474
1913	3615
1913	4008
1913	4074
1913	4120
1913	4177
1914	2187
1914	2439
1914	3370
1914	3999
1914	4105
1914	4363
1914	4788
1915	2121
1915	2482
1915	2639
1915	2896
1915	3860
1915	4171
1915	4856
1915	4976
1916	2652
1916	2689
1916	3282
1916	3338
1916	3456
1916	3775
1916	4104
1917	1997
1917	2374
1917	2647
1917	3542
1917	3788
1917	4038
1917	4482
1917	4563
1917	4779
1917	4908
1917	4948
1918	2171
1918	2741
1918	2799
1918	2940
1918	3275
1918	3884
1918	3987
1918	4411
1918	4699
1919	1996
1919	2200
1919	2642
1919	2804
1919	3595
1919	3682
1919	3916
1919	4157
1919	4225
1919	4700
1919	4741
1920	1971
1920	2075
1920	2289
1920	2731
1920	2959
1920	2975
1920	3008
1920	3481
1920	4896
1920	4951
1921	1930
1921	2008
1921	2526
1921	2756
1921	4445
1922	2790
1922	2932
1922	2963
1922	3002
1922	3144
1922	4040
1923	2000
1923	2027
1923	2167
1923	2491
1923	2845
1923	3103
1923	3233
1923	4099
1923	4323
1923	4596
1924	2063
1924	2700
1924	2771
1924	2933
1924	3321
1925	2192
1925	2948
1925	3300
1925	3307
1925	3395
1925	4021
1925	4932
1926	2521
1926	2535
1926	2960
1926	3258
1926	3326
1926	3753
1926	4236
1926	4386
1926	4689
1927	1974
1927	2393
1927	2886
1927	2917
1927	3036
1927	3196
1927	3486
1927	3703
1927	4194
1927	4844
1928	2665
1928	3878
1928	3999
1928	4085
1928	4620
1928	4696
1929	2140
1929	2615
1929	2982
1929	3145
1929	3248
1929	3502
1929	3565
1929	4469
1929	4826
1929	4981
1930	2104
1930	2109
1930	2119
1930	3430
1930	3935
1930	4294
1930	4657
1931	2079
1931	2178
1931	3583
1931	3750
1931	3958
1931	4013
1931	4683
1932	2194
1932	2440
1932	2575
1932	2601
1932	2701
1932	3016
1932	3344
1932	3535
1932	3907
1932	4038
1932	4327
1933	2027
1933	2262
1933	2284
1933	2600
1933	3329
1933	3347
1933	3443
1933	3504
1933	3519
1933	4093
1933	4197
1933	4381
1933	4433
1934	2604
1934	2818
1934	2901
1934	3146
1934	3305
1934	3990
1934	4916
1935	3184
1935	3381
1935	3416
1935	3421
1935	3557
1935	3660
1935	3797
1935	3820
1935	3883
1935	4527
1935	4968
1936	2638
1936	3760
1936	3828
1936	3866
1936	4761
1937	1981
1937	3636
1937	4715
1937	4828
1938	1973
1938	2078
1938	2294
1938	2470
1938	2628
1938	2704
1938	2897
1938	3377
1938	3630
1938	3992
1938	4503
1939	1949
1939	2336
1939	2817
1939	3160
1939	3560
1939	3772
1939	4185
1939	4447
1940	2226
1940	2246
1940	2462
1940	2469
1940	2544
1940	3440
1940	3679
1940	3877
1940	4352
1940	4460
1940	4895
1940	4991
1941	1988
1941	2323
1941	2842
1941	2906
1941	3115
1941	3374
1941	3734
1941	4017
1941	4982
1942	2027
1942	2169
1942	2857
1942	2929
1942	2980
1942	3065
1942	3289
1942	4293
1942	4586
1942	4665
1943	2227
1943	2829
1943	2968
1943	3302
1943	3729
1943	3934
1943	4102
1943	4439
1944	2186
1944	2366
1944	2393
1944	2628
1944	2794
1944	3100
1944	3146
1944	3590
1945	2007
1945	2103
1945	2130
1945	2500
1945	2932
1945	3009
1945	3314
1945	3422
1945	3706
1945	4189
1945	4436
1945	4464
1946	2505
1946	3030
1946	3153
1946	4041
1946	4364
1946	4433
1946	4608
1946	4874
1946	4945
1947	2465
1947	2650
1947	2769
1947	2792
1947	2904
1947	3005
1947	3034
1947	3279
1947	3372
1947	3606
1947	3741
1947	3879
1947	3935
1947	4035
1947	4517
1947	4581
1948	1949
1948	2207
1948	2252
1948	2540
1948	2626
1948	2723
1948	2750
1948	3007
1948	3073
1948	3826
1948	4239
1948	4650
1948	4841
1948	4876
1948	4880
1949	2333
1949	2392
1949	2422
1949	2514
1949	2562
1949	2585
1949	3107
1949	3366
1949	3412
1949	3454
1949	3550
1949	3855
1949	3981
1949	4056
1949	4247
1949	4352
1949	4515
1949	4580
1949	4874
1950	2579
1950	2677
1950	2778
1950	3143
1950	3264
1950	3312
1950	3482
1950	3625
1950	3646
1950	3724
1950	4223
1950	4393
1950	4511
1950	4565
1950	4975
1951	2115
1951	2631
1951	4071
1952	2219
1952	2746
1952	2787
1952	3441
1952	3479
1952	4315
1952	4789
1953	2171
1953	2341
1953	2915
1953	3108
1953	3302
1953	3367
1953	3377
1953	3596
1953	3632
1953	4252
1953	4264
1953	4269
1953	4386
1953	4871
1954	2718
1954	3448
1954	3595
1954	3727
1954	4543
1955	1983
1955	2464
1955	2513
1955	2547
1955	2624
1955	3283
1955	3336
1955	3503
1955	3747
1955	3863
1955	3999
1955	4406
1955	4983
1956	2348
1956	2529
1956	2722
1956	2798
1956	3179
1956	3292
1956	3349
1956	3527
1956	3610
1956	4450
1956	4936
1957	2038
1957	2083
1957	2228
1957	2501
1957	3614
1957	3756
1957	4104
1957	4312
1957	4819
1957	4907
1958	2352
1958	2456
1958	2504
1958	2529
1958	3777
1958	3828
1958	4007
1958	4411
1958	4612
1958	4955
1959	2307
1959	2363
1959	2502
1959	2907
1959	2930
1959	3246
1959	3556
1959	4402
1959	4590
1959	4705
1959	4831
1960	2042
1960	2190
1960	2432
1960	2502
1960	2917
1960	2949
1960	3192
1960	3252
1960	3267
1960	3277
1960	3420
1960	3458
1960	3489
1960	3901
1960	4185
1960	4789
1961	2038
1961	2045
1961	2861
1961	3519
1961	3710
1961	3964
1961	4089
1961	4157
1961	4694
1961	4737
1962	2001
1962	2350
1962	2636
1962	3376
1962	4039
1962	4060
1962	4293
1962	4988
1963	2554
1963	2679
1963	2969
1963	3610
1963	3631
1963	4180
1963	4674
1963	4741
1964	3425
1964	4026
1964	4087
1964	4257
1964	4267
1965	2179
1965	2303
1965	2720
1965	2920
1965	2964
1965	3282
1965	3754
1965	4071
1965	4460
1965	4807
1965	4987
1966	2004
1966	2018
1966	2111
1966	2629
1966	2693
1966	2757
1966	3143
1966	3211
1966	3434
1966	3613
1966	3782
1966	3793
1966	3853
1966	4283
1966	4678
1966	4736
1966	4918
1967	2136
1967	3238
1967	3400
1967	3629
1967	4116
1967	4504
1968	2228
1968	2334
1968	2368
1968	2732
1968	3343
1968	3859
1968	3956
1968	4170
1969	2135
1969	2436
1969	2754
1969	3006
1969	3084
1969	3216
1969	3574
1969	4365
1969	4531
1969	4858
1969	4927
1970	1992
1970	2101
1970	2921
1970	3120
1970	3399
1970	3817
1970	3969
1970	4386
1970	4495
1970	4867
1971	2221
1971	2311
1971	2472
1971	3014
1971	3197
1971	3327
1971	3911
1971	4170
1971	4708
1971	4857
1971	4956
1972	2087
1972	2871
1972	3533
1972	3748
1972	4321
1973	2418
1973	2746
1973	2825
1973	3456
1973	3508
1973	3727
1973	3764
1973	3768
1974	3478
1974	4833
1974	4950
1975	2037
1975	2270
1975	2567
1975	2843
1975	3057
1975	3343
1975	3430
1975	3507
1975	3684
1975	3793
1975	4408
1975	4427
1975	4810
1976	2564
1976	2668
1976	2796
1976	3232
1976	3557
1976	3561
1976	3806
1976	3807
1976	4109
1976	4551
1976	4698
1976	4825
1977	2155
1977	2491
1977	2505
1977	2703
1977	2810
1977	2909
1977	3184
1977	3552
1977	3658
1977	4318
1977	4327
1978	2098
1978	2138
1978	2193
1978	2439
1978	2559
1978	3008
1978	3071
1978	3301
1978	3957
1978	4272
1978	4968
1979	1999
1979	2090
1979	2459
1979	3214
1979	4306
1979	4462
1979	4701
1979	4709
1979	4868
1980	2149
1980	2293
1980	2409
1980	2571
1980	2964
1980	3309
1980	4037
1980	4169
1980	4393
1981	2370
1981	2802
1981	2873
1981	2938
1981	3178
1981	3348
1981	3612
1981	3708
1981	3778
1981	4109
1982	2456
1982	2757
1982	3289
1982	3551
1983	2378
1983	3110
1983	3465
1983	4403
1983	4437
1983	4475
1983	4677
1984	2796
1984	3001
1984	3287
1984	3831
1984	3892
1984	4841
1984	4991
1985	2019
1985	2315
1985	2326
1985	2494
1985	2891
1985	3082
1985	3240
1985	3777
1985	3942
1985	4218
1985	4267
1986	2543
1986	3332
1986	3343
1986	4924
1987	2369
1987	2519
1987	3773
1987	3785
1987	3839
1987	4159
1987	4519
1987	4679
1987	4986
1988	2494
1988	3656
1988	3872
1988	4081
1988	4170
1988	4949
1989	2133
1989	2649
1989	2728
1989	2753
1989	3093
1989	3384
1989	3833
1989	3861
1989	3989
1989	4119
1990	2998
1990	3246
1990	4140
1990	4269
1990	4389
1990	4609
1990	4917
1991	2073
1991	2132
1991	2147
1991	3330
1991	3511
1992	2018
1992	2114
1992	2295
1992	2507
1992	2683
1992	3040
1992	3290
1992	3873
1992	3895
1992	4037
1992	4215
1992	4264
1992	4328
1992	4438
1992	4612
1993	2568
1993	3394
1993	3615
1993	3662
1993	3759
1994	2104
1994	2580
1994	2584
1994	2908
1994	2977
1994	3049
1994	3067
1994	3206
1994	3287
1994	3467
1994	3489
1994	3845
1995	2936
1995	3358
1995	4480
1995	4531
1996	2385
1996	2791
1996	3068
1996	3618
1996	3818
1996	4578
1996	4795
1996	4817
1997	2315
1997	2383
1997	2534
1997	2593
1997	2910
1997	3411
1997	3660
1997	4127
1997	4339
1997	4423
1997	4996
1998	2192
1998	2349
1998	2529
1998	2798
1999	2106
1999	2677
1999	3844
1999	3882
1999	3899
1999	3972
1999	4083
1999	4424
1999	4576
2000	2364
2000	2922
2000	3364
2000	3848
2000	4628
2000	4723
2001	2140
2001	2789
2001	3088
2001	3097
2001	4149
2001	4152
2002	2031
2002	2063
2002	2113
2002	2128
2002	2225
2002	2388
2002	2459
2002	2554
2002	3022
2002	3062
2002	3383
2002	3661
2002	3812
2002	3904
2002	3960
2003	2034
2003	2315
2003	2864
2003	3375
2004	2079
2004	2158
2004	2486
2004	3095
2004	3525
2004	3783
2004	3886
2004	4205
2004	4964
2005	2243
2005	2552
2005	3300
2005	3451
2005	4605
2005	4973
2005	4999
2006	2099
2006	2146
2006	2206
2006	2328
2006	2358
2006	2390
2006	2778
2006	3360
2006	4100
2007	2351
2007	2487
2007	2850
2007	2872
2007	3062
2007	3098
2007	3552
2007	3847
2007	3884
2007	3898
2007	4094
2007	4101
2007	4174
2007	4801
2008	2131
2008	2366
2008	2468
2008	2619
2008	2700
2008	2947
2008	3182
2008	3550
2008	3792
2008	3987
2008	4332
2008	4766
2008	4951
2009	2324
2009	2560
2009	2847
2009	3315
2009	3508
2009	3583
2009	4829
2009	4930
2010	2260
2010	2534
2010	2641
2010	2762
2010	2905
2010	3914
2010	4188
2010	4717
2010	4944
2010	4963
2011	2293
2011	2577
2011	2838
2011	3222
2011	3500
2011	3690
2011	4376
2012	4527
2013	2028
2013	2113
2013	2134
2013	2385
2013	2621
2013	2894
2013	2946
2013	3336
2013	3738
2013	3959
2013	4344
2014	2016
2014	2064
2014	2458
2014	2643
2014	2717
2014	2921
2014	3062
2014	3311
2014	3454
2014	3516
2014	3573
2014	3813
2014	3989
2014	4012
2014	4496
2014	4859
2015	2099
2015	2190
2015	2237
2015	2292
2015	2525
2015	2982
2015	3051
2015	3582
2015	3619
2015	4476
2015	4672
2016	2431
2016	2533
2016	2571
2016	3211
2016	3721
2016	3774
2016	4025
2016	4043
2016	4245
2016	4246
2016	4252
2016	4913
2017	2577
2017	2932
2017	3576
2017	3972
2017	4005
2017	4217
2017	4512
2017	4674
2017	4985
2018	2089
2018	2190
2018	2191
2018	2211
2018	2425
2018	2517
2018	2544
2018	2727
2018	2872
2018	2959
2018	3020
2018	3169
2018	3445
2018	3507
2018	3825
2018	4056
2018	4062
2018	4193
2018	4271
2018	4385
2019	2095
2019	2133
2019	2210
2019	2220
2019	3179
2019	3304
2019	4406
2020	2187
2020	2702
2020	2783
2020	3233
2020	3616
2020	3794
2020	3845
2020	3982
2020	4606
2021	4954
2022	2411
2022	2659
2022	2808
2022	3194
2022	3500
2022	4181
2022	4799
2022	4894
2024	2110
2024	2159
2024	2362
2024	2539
2024	3108
2024	3132
2024	4161
2024	4657
2025	2565
2025	2572
2025	2715
2025	2813
2025	2913
2025	3484
2025	3658
2025	3876
2025	3922
2025	3933
2025	4000
2025	4101
2025	4772
2026	2117
2026	2252
2026	3018
2026	3406
2027	2235
2027	2240
2027	2319
2027	2542
2027	3237
2027	3248
2027	3408
2027	3901
2028	2032
2028	2043
2028	2280
2028	2554
2028	2614
2028	2981
2028	3013
2028	3156
2028	4260
2028	4686
2029	2198
2029	2412
2029	2481
2029	2568
2029	2741
2029	3122
2029	3488
2029	3626
2029	3849
2029	4312
2029	4661
2029	4809
2029	4969
2029	4996
2030	2098
2030	2390
2030	2441
2030	2696
2030	3429
2030	3480
2030	3881
2030	4196
2030	4488
2030	4556
2030	4659
2030	4721
2031	2303
2031	2312
2031	4542
2031	4941
2032	2716
2032	2755
2032	2805
2032	2837
2032	2969
2032	3064
2032	3199
2032	3204
2032	3361
2032	3716
2032	3724
2032	4079
2032	4287
2032	4452
2032	4523
2032	4608
2032	4946
2032	4995
2033	2204
2033	2452
2033	2513
2033	3039
2033	3069
2033	3327
2033	3933
2033	4710
2033	4981
2034	2062
2034	2525
2034	2569
2034	3267
2034	4194
2035	2471
2035	2511
2035	2972
2035	3729
2035	3766
2035	3888
2035	3989
2036	2566
2036	3137
2036	3445
2036	3834
2037	2078
2037	2099
2037	2487
2037	2502
2037	2996
2037	3772
2037	3852
2037	4230
2037	4355
2038	2130
2038	2138
2038	2183
2038	2472
2038	2582
2038	2688
2038	2804
2038	2877
2038	2878
2038	3121
2038	3178
2038	3563
2038	3817
2038	3953
2038	3975
2038	4277
2038	4360
2038	4552
2039	2236
2039	2611
2039	2968
2039	4912
2040	2051
2040	2162
2040	2437
2040	3896
2040	4093
2040	4185
2041	2462
2041	2773
2041	3511
2041	3720
2041	3947
2041	4657
2041	4725
2042	2102
2042	2143
2042	2806
2042	3543
2042	3545
2042	3606
2042	4398
2042	4731
2043	2497
2043	3594
2043	3915
2043	4242
2043	4737
2043	4808
2044	2378
2044	2913
2044	3379
2044	3895
2044	4478
2044	4837
2045	2225
2045	2279
2045	2385
2045	2506
2045	2914
2045	3076
2045	3196
2045	3249
2045	3255
2045	3366
2045	3367
2045	3604
2045	4493
2045	4539
2046	2359
2046	2374
2046	2632
2046	3091
2046	3299
2046	3801
2046	4687
2046	4694
2046	4724
2046	4979
2047	2192
2047	2573
2047	3945
2047	4286
2047	4350
2047	4364
2047	4599
2047	4628
2047	4821
2047	4969
2048	2145
2048	2796
2048	2973
2048	3033
2048	3533
2048	4210
2048	4433
2048	4561
2048	4643
2049	2198
2049	2306
2049	2514
2049	2663
2049	4497
2050	2514
2050	2691
2050	4263
2050	4528
2050	4681
2050	4732
2050	4986
2051	2477
2051	2536
2051	2855
2051	2877
2051	4090
2051	4277
2051	4381
2051	4471
2052	2105
2052	2309
2052	3205
2052	3988
2052	4168
2052	4878
2053	2355
2053	2410
2053	3093
2053	3167
2053	3640
2053	3863
2053	3887
2053	4000
2053	4693
2054	2718
2054	2777
2054	3100
2054	3114
2054	3146
2054	3317
2054	4158
2054	4643
2054	4649
2055	2112
2055	2205
2055	2749
2055	2801
2055	2880
2055	2909
2055	3467
2055	4213
2055	4794
2056	2101
2056	2376
2056	2463
2056	2539
2056	2729
2056	2733
2056	2804
2056	2970
2056	3002
2056	3291
2056	3413
2056	3542
2056	3737
2056	3781
2056	3876
2056	4431
2057	2357
2057	2849
2057	2986
2057	3078
2057	3505
2057	3578
2057	4757
2058	2411
2058	2505
2058	2648
2058	2895
2058	3832
2058	4909
2059	2124
2059	2126
2059	2484
2059	2873
2059	2941
2059	2958
2059	3046
2059	3177
2059	3349
2059	3909
2059	4378
2060	2872
2060	3003
2060	3120
2060	3238
2060	3580
2060	3644
2060	4416
2060	4858
2061	2393
2061	2486
2061	3715
2061	4087
2061	4347
2061	4786
2061	4886
2062	2213
2062	2374
2062	2619
2062	2641
2062	2896
2062	3197
2062	3236
2062	3362
2062	3418
2062	3451
2062	3804
2062	4591
2062	4821
2062	4948
2063	2718
2063	2802
2063	2991
2063	3419
2063	3676
2063	4562
2063	4811
2064	2206
2064	3634
2064	4193
2064	4338
2064	4352
2064	4407
2064	4513
2064	4521
2064	4683
2065	2679
2065	2713
2065	2732
2065	3138
2065	3296
2065	3575
2065	3651
2065	3964
2065	4250
2065	4359
2065	4581
2065	4734
2066	2102
2066	2208
2066	2231
2066	2925
2066	3138
2066	3284
2066	3588
2066	4265
2066	4754
2067	2412
2067	2569
2067	3054
2067	3174
2067	3343
2067	3524
2067	3587
2067	3974
2067	4452
2067	4527
2067	4737
2068	2081
2068	2200
2068	2520
2068	2877
2068	2880
2068	3232
2068	3452
2068	3592
2068	4667
2068	4826
2069	2279
2069	2292
2069	2510
2069	2519
2069	3233
2069	3258
2069	3523
2069	3936
2069	4177
2069	4229
2069	4270
2069	4391
2069	4406
2069	4951
2070	2281
2070	2552
2070	2950
2070	3042
2070	3135
2070	3167
2070	3269
2070	3379
2070	3441
2070	3650
2070	3704
2070	4048
2070	4830
2071	2353
2071	2798
2071	3468
2071	3728
2071	3734
2071	4023
2071	4088
2071	4191
2071	4501
2071	4836
2072	2235
2072	2280
2072	2402
2072	2643
2072	3272
2072	3389
2072	3493
2072	3654
2072	3767
2072	4505
2072	4720
2072	4808
2072	4963
2073	2307
2073	2496
2073	2566
2073	2619
2073	2667
2073	3061
2073	3202
2073	3345
2073	4109
2073	4208
2073	4249
2073	4381
2073	4497
2073	4652
2073	4799
2073	4887
2073	4989
2074	2086
2074	4140
2074	4574
2075	2128
2075	2297
2075	2489
2075	3168
2075	3311
2075	3769
2075	3785
2075	3981
2075	4175
2076	2182
2076	2205
2076	2490
2076	2536
2076	2618
2076	2978
2076	3124
2076	3374
2076	3409
2076	4226
2076	4484
2076	4688
2076	4742
2076	4907
2076	4953
2077	2322
2077	2911
2077	3128
2077	3564
2077	3630
2077	3746
2077	3823
2077	4105
2078	2177
2078	2458
2078	2619
2078	2625
2078	2818
2078	2864
2078	3297
2078	3505
2078	3666
2078	4443
2078	4970
2079	2261
2079	2289
2079	2693
2079	2963
2079	3020
2079	3316
2079	3592
2079	3660
2079	3922
2079	4471
2080	2124
2080	2235
2080	2692
2080	3532
2080	4203
2081	2586
2081	2733
2081	2783
2081	2789
2081	2792
2081	3178
2081	3387
2081	3919
2081	4168
2081	4372
2081	4638
2082	3023
2082	3286
2082	3508
2082	3955
2082	4363
2082	4879
2083	2188
2083	2542
2083	2689
2083	2833
2083	2889
2083	3647
2083	4343
2083	4361
2083	4399
2084	2183
2084	3398
2084	4095
2085	2243
2085	2338
2085	2823
2085	3529
2085	3735
2085	4125
2085	4254
2086	2336
2086	3245
2086	3270
2086	3615
2086	3844
2086	4009
2086	4349
2087	2222
2087	2553
2087	2610
2087	2769
2087	2846
2087	3248
2088	2613
2088	2882
2088	3013
2088	3211
2088	3856
2088	4194
2088	4450
2089	2113
2089	2301
2089	3142
2089	3478
2089	3890
2089	3951
2089	4309
2089	4684
2089	4774
2089	4907
2090	2172
2090	2206
2090	3742
2091	2306
2091	3372
2091	4618
2091	4727
2091	4746
2092	3364
2092	3382
2092	4762
2093	2194
2093	2731
2093	2781
2093	2902
2093	2960
2093	2971
2093	3392
2093	3665
2093	3694
2093	3695
2093	4368
2093	4706
2094	2613
2095	2275
2095	2305
2095	2710
2095	3915
2096	2201
2096	3268
2096	3469
2096	4385
2096	4502
2096	4633
2097	2419
2097	2571
2097	2985
2097	3107
2097	3292
2097	3432
2097	3732
2097	3881
2097	3924
2097	4360
2097	4470
2097	4566
2098	2514
2098	2659
2098	2897
2098	3044
2098	3240
2098	3640
2098	3926
2098	4511
2098	4646
2098	4743
2099	2331
2099	3488
2099	3535
2099	4950
2100	2814
2100	3258
2100	3320
2100	3379
2100	3452
2100	4966
2101	2340
2101	2468
2101	2520
2101	2545
2101	2911
2101	3356
2101	3560
2101	3836
2101	4080
2101	4136
2101	4662
2101	4691
2101	4697
2101	4964
2102	2118
2102	2264
2102	2415
2102	2627
2102	3043
2102	3091
2102	3351
2102	3396
2102	4326
2103	2476
2103	2847
2103	3028
2103	3365
2103	3558
2103	4166
2103	4356
2103	4598
2103	4982
2103	4988
2104	2126
2104	2143
2104	2444
2104	2589
2104	3110
2104	3199
2104	3271
2104	3281
2104	3470
2104	4103
2104	4140
2104	4399
2104	4543
2104	4714
2105	2533
2105	2557
2105	4080
2105	4463
2105	4495
2105	4575
2106	2223
2106	3438
2107	2204
2107	2222
2107	2515
2107	2776
2107	2943
2107	3040
2107	3375
2107	3492
2107	3623
2107	4798
2108	2266
2108	2436
2108	2508
2108	2739
2108	3084
2108	3133
2108	3179
2108	3216
2108	3796
2108	3920
2108	4020
2108	4311
2108	4546
2108	4702
2108	4878
2109	2487
2109	2849
2109	2971
2109	3310
2109	3784
2109	3828
2109	4403
2109	4998
2110	2339
2110	2399
2110	3416
2110	3619
2110	3755
2110	4305
2110	4656
2110	4802
2110	4958
2111	2977
2111	3936
2112	3032
2112	3094
2112	3280
2112	3482
2112	3925
2112	4110
2112	4118
2112	4295
2112	4629
2112	4904
2113	2528
2113	2568
2113	2749
2113	2866
2113	3469
2113	3471
2113	3791
2113	3794
2113	3806
2113	3865
2113	3976
2113	4131
2113	4471
2113	4782
2113	4971
2114	3038
2114	4508
2115	2316
2115	2438
2115	2603
2115	3584
2115	3747
2115	3773
2115	4312
2115	4837
2116	2199
2116	2442
2116	3444
2116	3490
2116	3568
2116	4599
2116	4639
2116	4725
2117	2405
2117	2419
2117	3340
2117	3354
2117	3423
2117	3458
2117	3597
2117	4211
2117	4227
2118	2483
2118	2904
2118	2964
2118	3730
2118	3732
2118	4041
2118	4575
2118	4627
2119	2373
2119	2553
2119	2654
2119	2686
2119	3083
2119	4790
2120	2203
2120	2334
2120	2433
2120	2662
2120	2795
2120	3175
2120	3380
2120	3466
2120	3494
2120	3916
2120	4374
2120	4406
2120	4408
2120	4574
2120	4575
2120	4709
2121	2168
2121	2259
2121	2383
2121	2633
2121	3127
2121	3509
2121	3526
2121	3985
2121	4593
2122	2135
2122	2396
2122	2892
2122	2924
2122	2969
2122	3273
2122	3360
2122	3697
2122	3797
2122	3864
2122	3888
2122	3930
2122	3974
2122	4444
2122	4779
2122	4907
2123	2758
2123	2999
2123	3085
2123	3290
2123	3555
2124	2227
2124	2374
2124	2415
2124	2622
2124	2731
2124	2879
2124	4060
2124	4838
2125	2374
2125	2567
2125	2624
2125	2681
2125	3173
2125	3400
2125	3850
2125	4430
2126	2408
2126	2618
2126	3005
2126	3167
2126	3292
2126	4117
2127	3075
2127	3393
2127	4173
2127	4515
2127	4790
2128	2206
2128	2250
2128	2356
2128	2926
2128	3253
2128	3254
2128	3648
2128	3836
2128	4603
2128	4629
2128	4656
2129	2131
2129	2252
2129	2400
2129	2784
2129	3257
2129	3351
2129	3860
2129	4139
2129	4238
2129	4300
2129	4800
2129	4802
2130	2551
2130	2591
2130	2958
2130	4488
2130	4569
2131	2297
2131	2869
2131	3316
2131	3323
2131	3642
2131	4228
2131	4455
2131	4978
2132	2977
2132	3288
2132	3352
2132	3495
2132	3527
2132	3668
2132	3883
2132	3951
2132	3971
2132	4258
2132	4546
2132	4604
2133	2155
2133	2339
2133	3285
2133	3457
2133	4190
2133	4384
2133	4805
2134	3974
2134	4220
2134	4365
2135	2168
2135	2175
2135	2407
2135	2746
2135	2845
2135	3172
2135	3191
2135	3428
2135	3688
2135	3979
2135	4657
2135	4691
2135	4718
2136	2150
2136	2433
2136	3428
2136	3783
2136	3833
2137	2222
2137	2450
2137	2538
2137	3050
2137	3337
2137	4314
2137	4534
2137	4692
2137	4749
2138	2259
2138	3083
2138	3193
2138	3404
2138	3484
2138	4295
2138	4330
2139	2428
2139	2464
2139	2497
2139	3162
2139	3173
2139	3190
2139	3236
2139	3424
2139	3548
2139	3646
2139	4820
2140	2377
2140	3800
2140	4176
2140	4375
2141	2363
2141	2823
2141	2843
2141	3169
2141	3287
2141	3663
2141	3837
2141	4320
2141	4522
2141	4551
2142	2159
2142	2612
2142	2919
2143	2523
2143	3322
2143	3874
2143	3887
2143	4057
2144	2426
2144	2626
2144	2790
2144	3175
2144	3248
2144	3481
2144	3892
2144	4627
2145	2402
2145	2620
2145	2941
2145	3427
2145	3868
2145	4093
2145	4176
2145	4278
2145	4290
2145	4921
2145	4931
2146	3402
2146	3674
2146	3701
2146	4484
2146	4997
2147	2523
2147	2574
2147	2710
2147	2800
2147	2931
2147	3509
2147	3518
2147	3630
2147	3693
2147	3972
2148	2304
2148	3041
2148	3958
2149	2189
2149	2756
2149	2892
2149	3411
2149	3524
2149	4136
2150	2208
2150	2362
2150	2421
2150	2486
2150	2514
2150	2710
2150	2885
2150	2889
2150	3127
2150	3177
2150	3299
2150	3327
2150	3397
2150	4095
2150	4331
2150	4871
2151	2364
2151	2403
2151	2497
2151	2591
2151	2600
2151	2933
2151	3110
2151	3725
2151	4027
2151	4046
2151	4324
2151	4679
2152	2736
2152	3363
2152	3679
2152	4216
2152	4954
2153	2621
2153	2639
2153	2959
2153	4382
2154	2185
2154	2301
2154	2485
2154	2498
2154	2906
2154	2932
2154	2947
2154	3042
2154	4185
2155	2237
2155	2712
2155	2721
2155	2781
2155	2969
2155	3177
2155	3228
2155	4223
2155	4361
2156	2828
2156	3276
2156	3832
2156	4424
2156	4429
2157	2666
2157	2669
2157	3109
2157	4157
2158	2773
2158	3460
2158	3568
2158	4163
2159	2597
2159	2652
2159	2805
2159	2807
2159	2813
2159	3515
2159	3526
2159	3572
2159	3639
2159	3686
2159	3764
2159	3969
2159	4536
2159	4564
2159	4824
2160	2531
2160	2602
2160	2681
2160	2865
2160	2928
2160	3029
2160	3036
2160	3597
2160	4770
2160	4847
2160	4917
2161	2296
2161	2417
2161	2712
2161	3095
2161	3539
2161	3864
2161	3868
2161	4046
2161	4220
2161	4269
2161	4413
2161	4653
2161	4773
2161	4849
2162	2561
2162	2938
2162	3154
2162	3314
2162	4495
2162	4749
2162	4918
2162	4939
2163	2875
2163	3051
2163	3282
2163	3709
2163	3956
2163	4157
2163	4698
2163	4754
2164	2180
2164	2213
2164	2559
2164	2687
2164	2735
2164	2812
2164	3497
2164	3610
2164	3707
2164	4600
2165	2328
2165	3841
2165	4441
2165	4711
2166	2183
2166	2272
2166	2365
2166	2665
2166	2740
2166	3185
2166	3212
2166	3240
2167	2169
2167	2191
2167	2360
2167	2383
2167	2422
2167	2535
2167	2549
2167	3106
2167	3208
2167	3293
2167	3849
2167	4023
2167	4470
2167	4904
2168	2232
2168	2383
2168	3383
2168	4129
2168	4438
2168	4440
2168	4974
2169	2596
2169	2753
2169	3378
2169	3613
2169	4023
2169	4031
2169	4648
2169	4704
2170	2229
2170	2337
2170	2406
2170	2755
2170	3249
2170	3425
2170	3668
2170	4724
2171	2915
2171	3501
2171	4123
2171	4574
2172	2991
2172	4322
2173	2245
2173	3003
2173	3602
2173	4177
2173	4464
2173	4628
2174	2254
2174	3248
2174	3410
2174	3451
2174	3507
2174	3675
2174	4522
2174	4847
2174	4963
2174	4999
2175	2234
2175	2955
2175	3406
2175	3638
2175	4295
2175	4620
2175	4853
2175	4903
2176	2232
2176	2532
2176	3794
2177	2285
2177	3582
2177	3651
2178	2223
2178	2339
2178	3075
2178	3390
2178	4096
2178	4205
2178	4731
2178	4739
2178	4920
2179	2217
2179	2596
2179	3072
2179	3224
2179	4076
2179	4132
2179	4187
2179	4294
2180	2651
2180	3467
2180	3541
2180	4041
2180	4141
2180	4761
2180	4990
2181	2241
2181	2304
2181	2444
2181	2504
2181	2593
2181	2737
2181	3607
2181	3759
2181	3777
2181	3957
2181	4223
2182	2429
2182	2721
2182	3115
2182	3752
2182	4066
2182	4068
2182	4735
2183	2188
2183	2313
2183	2408
2183	2510
2183	2541
2183	2545
2183	2625
2183	2698
2183	2702
2183	2758
2183	2762
2183	3007
2183	3052
2183	3356
2183	3393
2183	3799
2183	3866
2183	4437
2183	4489
2183	4697
2184	2327
2184	2372
2184	2753
2184	2810
2184	2854
2184	3008
2184	3100
2184	3410
2184	4330
2185	2317
2185	2513
2185	2865
2185	2894
2185	3406
2185	3962
2185	4180
2185	4415
2186	2349
2186	2400
2186	2622
2186	2891
2186	3436
2186	3549
2186	3685
2186	4699
2187	2635
2187	3444
2187	4054
2187	4279
2187	4357
2187	4519
2187	4886
2188	2877
2188	3009
2188	3260
2189	3116
2189	3207
2189	3257
2189	3327
2189	3914
2189	4132
2189	4182
2189	4244
2189	4329
2189	4470
2189	4503
2189	4553
2189	4718
2189	4837
2190	2857
2190	3464
2190	3520
2190	3608
2190	4266
2190	4361
2190	4373
2190	4629
2190	4698
2190	4821
2190	4868
2191	2736
2191	3057
2191	3331
2191	4812
2192	2230
2192	2523
2192	2629
2192	3436
2192	4327
2193	2427
2193	2627
2193	2869
2193	2930
2193	3061
2193	3498
2193	3555
2193	3605
2193	3936
2193	4047
2193	4522
2194	3020
2194	3043
2194	3583
2194	4012
2194	4069
2194	4496
2194	4850
2195	2699
2195	2719
2195	2810
2195	3046
2195	3578
2195	3656
2195	4172
2195	4750
2196	2361
2196	2714
2196	2811
2196	2866
2196	2899
2197	2274
2197	2296
2197	2674
2197	2709
2197	2800
2197	2805
2197	3148
2197	3158
2197	3282
2197	3542
2197	3842
2197	4089
2197	4452
2197	4692
2198	2387
2198	2607
2198	2765
2198	3016
2198	3304
2198	3366
2198	3875
2198	4063
2198	4522
2199	2550
2199	2866
2199	3978
2199	4385
2199	4680
2200	2384
2200	2654
2200	2968
2200	3334
2200	3363
2200	3368
2200	3497
2200	3793
2200	4341
2200	4371
2200	4839
2200	4981
2201	2262
2201	2356
2201	2614
2201	2693
2201	2736
2201	2963
2201	3099
2201	3261
2201	3639
2201	4112
2201	4517
2202	2606
2202	2780
2202	3299
2202	3350
2202	3380
2202	3466
2202	4955
2203	2376
2203	2432
2203	2720
2203	2994
2203	3476
2203	3566
2203	3776
2203	3926
2203	4449
2204	2653
2204	2992
2204	3651
2204	3924
2204	4235
2204	4703
2204	4820
2205	2775
2205	3268
2205	3347
2205	3527
2205	4834
2206	2665
2206	2917
2206	2947
2206	3513
2206	3885
2206	4856
2207	2310
2207	3311
2207	3672
2207	3891
2207	4157
2207	4313
2207	4860
2208	2247
2208	2629
2208	2877
2208	2988
2208	3073
2208	3078
2208	3593
2208	3695
2208	3858
2208	4337
2208	4386
2208	4624
2208	4740
2209	2310
2209	2339
2209	2456
2209	2586
2209	2855
2209	3403
2209	4234
2209	4520
2209	4884
2210	2740
2210	3092
2210	3111
2210	4279
2210	4281
2210	4720
2210	4905
2211	2761
2211	2825
2211	2912
2211	3077
2211	3099
2211	3193
2211	3216
2211	3587
2211	3983
2211	4045
2211	4102
2211	4577
2211	4722
2211	4956
2212	2254
2212	3021
2212	3243
2212	3817
2212	3992
2212	4332
2212	4481
2213	2421
2213	2500
2213	2531
2213	3108
2213	3191
2213	3301
2213	4231
2213	4364
2213	4402
2213	4954
2214	2276
2214	2326
2214	2380
2214	2554
2214	2704
2214	2809
2214	3074
2214	3127
2214	3544
2214	4456
2214	4994
2215	2300
2215	2932
2215	3143
2215	3744
2215	4208
2215	4424
2215	4465
2216	2689
2216	3228
2217	2815
2217	3008
2217	3169
2217	3548
2217	3905
2217	4855
2218	2657
2218	2748
2218	2794
2218	3554
2218	3692
2218	3718
2218	4721
2218	4851
2218	4959
2219	2627
2219	2903
2219	3059
2219	3251
2219	3346
2219	3745
2219	3827
2220	2351
2220	2621
2220	2672
2220	3018
2220	3032
2220	3503
2220	3922
2221	2331
2221	3142
2221	3447
2221	3759
2221	3869
2221	4017
2221	4526
2221	4785
2222	3099
2222	3400
2222	4034
2222	4118
2222	4154
2222	4194
2223	2409
2223	2984
2223	3003
2223	3039
2223	3091
2223	3242
2223	3547
2223	3673
2223	3912
2224	2567
2224	2982
2224	3163
2224	3221
2224	3902
2224	4106
2224	4619
2225	2739
2225	2926
2225	3289
2225	3306
2225	3336
2225	3604
2225	3645
2225	4171
2225	4385
2226	2308
2226	2513
2226	2591
2226	2763
2226	3182
2226	3321
2226	3543
2226	3788
2226	4000
2227	3114
2227	3482
2227	3573
2227	3889
2227	4493
2227	4630
2227	4929
2228	2233
2228	2479
2228	2867
2228	3656
2228	3850
2228	4206
2229	2390
2229	2767
2229	3508
2229	3600
2229	3855
2229	4356
2229	4644
2229	4895
2230	2273
2230	3004
2230	3094
2230	3442
2230	3735
2230	3749
2230	3758
2230	4052
2230	4275
2231	2513
2231	3952
2231	3993
2231	4137
2231	4719
2232	2507
2232	3058
2232	3159
2232	3292
2232	3673
2232	3832
2232	4016
2232	4023
2232	4149
2232	4229
2232	4302
2232	4341
2233	2515
2233	2752
2233	3217
2233	3586
2234	2655
2234	3078
2234	3910
2234	3953
2234	4329
2234	4647
2234	4843
2235	2434
2235	2752
2235	2944
2235	3578
2235	3736
2235	3966
2235	4074
2235	4224
2235	4846
2235	4862
2235	4890
2235	4908
2236	2286
2236	2891
2236	2898
2236	3241
2236	3372
2236	3448
2236	3827
2236	3984
2236	4444
2236	4753
2236	4818
2236	4831
2237	2463
2237	2485
2237	3192
2237	3344
2237	3929
2237	3985
2237	4380
2237	4641
2237	4971
2238	2334
2238	2760
2238	2924
2238	3160
2238	3925
2238	4085
2238	4159
2238	4182
2238	4349
2238	4394
2238	4949
2239	2251
2239	3222
2239	4794
2240	2304
2240	2859
2240	4179
2240	4274
2240	4375
2241	3469
2241	3928
2241	4867
2242	3009
2242	3230
2242	3446
2242	3503
2242	3585
2242	3722
2242	3801
2242	4009
2242	4365
2242	4940
2243	2778
2243	2882
2243	3118
2243	3529
2243	3813
2243	3927
2243	4084
2243	4407
2243	4414
2243	4494
2244	2997
2244	4112
2244	4454
2245	2337
2245	3122
2245	3341
2245	3403
2245	3527
2245	4691
2246	2692
2246	2752
2246	3082
2246	3154
2246	4078
2246	4233
2246	4899
2247	2893
2247	3480
2247	3562
2247	4606
2247	4778
2248	2371
2248	2489
2248	2846
2248	3137
2248	3253
2248	3389
2248	3627
2248	4226
2248	4370
2248	4403
2248	4422
2248	4497
2248	4581
2249	2578
2249	2656
2249	2936
2249	3038
2249	3152
2249	3550
2249	3897
2249	4088
2249	4338
2249	4381
2249	4410
2249	4554
2249	4594
2249	4749
2250	2330
2250	2390
2250	2549
2250	2699
2250	3198
2250	3750
2250	3973
2250	4276
2250	4515
2250	4567
2251	2350
2251	2446
2251	2475
2251	2686
2251	4360
2252	2299
2252	4260
2252	4612
2252	4703
2252	4748
2253	2288
2253	3201
2253	4155
2253	4879
2253	4913
2254	2534
2254	3229
2254	3635
2254	3677
2254	4366
2254	4774
2255	2582
2255	2604
2255	2845
2255	3530
2255	4121
2256	2590
2256	3627
2256	3760
2256	4135
2256	4744
2257	2493
2257	2509
2257	2749
2257	3488
2257	3911
2257	4291
2257	4769
2258	2269
2258	2562
2258	2647
2258	2855
2258	3060
2258	3522
2258	3728
2258	4007
2258	4196
2258	4224
2258	4707
2258	4740
2258	4755
2258	4812
2259	3484
2259	4225
2259	4404
2259	4494
2260	2507
2260	3805
2260	4428
2260	4911
2260	4959
2261	2338
2261	2475
2261	4261
2262	2538
2262	2971
2262	3671
2262	4540
2263	2284
2263	2774
2263	2974
2263	3715
2263	4144
2263	4817
2263	4997
2264	2430
2264	2572
2264	2632
2264	2700
2264	3229
2264	4331
2264	4367
2264	4831
2265	2439
2265	3175
2265	3699
2265	4149
2265	4332
2265	4805
2266	2512
2266	3094
2266	3165
2266	4051
2267	2455
2267	2662
2267	2814
2267	2819
2267	2820
2267	2929
2267	3104
2267	3148
2267	3340
2267	3609
2267	3906
2267	4066
2267	4092
2267	4112
2267	4516
2267	4624
2268	2276
2268	2976
2268	3156
2268	3312
2268	3417
2268	3942
2268	3961
2268	4362
2268	4809
2269	2913
2269	3880
2269	3911
2270	2293
2270	3255
2270	3668
2270	3739
2270	3944
2270	4018
2270	4151
2270	4618
2270	4723
2271	2449
2271	2728
2271	2871
2271	3750
2271	3859
2271	4187
2271	4448
2271	4926
2272	2463
2272	2622
2272	2908
2272	3171
2272	3209
2272	3246
2272	3303
2272	3564
2272	3913
2272	3936
2272	4229
2272	4384
2272	4509
2272	4546
2272	4817
2272	4911
2273	2551
2273	3053
2273	3762
2273	3827
2273	4720
2274	2602
2274	2745
2274	2910
2274	3119
2274	3806
2275	2289
2275	3111
2275	3423
2275	3691
2275	4449
2275	4486
2276	2619
2276	2763
2276	3884
2276	4089
2276	4227
2276	4723
2277	2641
2277	2832
2277	2890
2277	4104
2277	4186
2278	2548
2278	3229
2278	3540
2278	4043
2278	4168
2278	4727
2278	4814
2279	2732
2279	3222
2279	3398
2279	3727
2279	4774
2279	4922
2280	2530
2280	3872
2281	2319
2281	2463
2281	2673
2281	3036
2281	3041
2281	3421
2281	3451
2281	3797
2281	4032
2281	4101
2281	4573
2281	4650
2282	2509
2282	3114
2282	3405
2282	3671
2282	3736
2282	4367
2282	4588
2283	2593
2283	2689
2283	2740
2283	3205
2283	4573
2283	4710
2284	2524
2284	3693
2284	3996
2284	4088
2284	4548
2285	2482
2285	2766
2285	3399
2285	3890
2285	3935
2285	4312
2286	2352
2286	2988
2286	3279
2286	3643
2286	4187
2286	4458
2286	4759
2286	4817
2287	2366
2287	2481
2287	2626
2287	2989
2287	3943
2287	4888
2288	2437
2288	2444
2288	3833
2288	4224
2288	4594
2289	3131
2289	3146
2289	3309
2289	4508
2290	2509
2290	2707
2290	2735
2290	2774
2290	2821
2290	3088
2290	3438
2290	3560
2290	3788
2290	4068
2290	4825
2290	4938
2290	4980
2291	2335
2291	2462
2291	2658
2291	2661
2291	2706
2291	2848
2291	3078
2291	3451
2291	3745
2291	3747
2291	3894
2291	3933
2291	4064
2291	4138
2291	4314
2291	4426
2292	3057
2292	4281
2292	4491
2292	4923
2293	2923
2293	3307
2293	3655
2293	3706
2293	4985
2294	2619
2294	2876
2294	2988
2294	3606
2294	3765
2294	4310
2295	3872
2295	3978
2296	2372
2296	2538
2296	2562
2296	3697
2296	3873
2296	3984
2296	4408
2296	4785
2297	2319
2297	2435
2297	2534
2297	2683
2297	2912
2297	3876
2297	4061
2297	4227
2298	2609
2298	2690
2298	2865
2298	3165
2298	3734
2298	4098
2299	2562
2299	2565
2299	2596
2299	2671
2300	3654
2300	3793
2300	4050
2300	4063
2300	4784
2300	4915
2300	4988
2301	3361
2301	3770
2301	4308
2301	4542
2301	4543
2301	4551
2301	4668
2301	4690
2301	4943
2302	3117
2302	3121
2302	3546
2302	3548
2302	3657
2302	4523
2303	2805
2303	3145
2303	3157
2303	3470
2303	3512
2303	3898
2303	4147
2303	4690
2303	4709
2304	3019
2304	3190
2304	3379
2304	3556
2304	3916
2304	4184
2305	2344
2305	4210
2305	4294
2305	4823
2306	2400
2306	2658
2306	2714
2306	2720
2306	2823
2306	3144
2306	3164
2306	3759
2306	3787
2306	3932
2306	4161
2306	4693
2306	4945
2307	2490
2307	2554
2307	3566
2307	4770
2307	4849
2307	4850
2308	2725
2308	2809
2308	3661
2308	4696
2308	4776
2309	2459
2309	2950
2309	3414
2309	3477
2309	3597
2309	4649
2309	4796
2310	2747
2310	2829
2310	2910
2310	3358
2310	3467
2310	4832
2311	2588
2311	2713
2311	2874
2311	3217
2311	3897
2311	4764
2311	4859
2312	2749
2312	2904
2312	3544
2312	3556
2312	3680
2312	4645
2312	4966
2313	2445
2313	2598
2313	2640
2313	2942
2313	3843
2313	3892
2313	4032
2313	4673
2314	2691
2314	2856
2314	3048
2314	3072
2314	3241
2314	3280
2314	3316
2314	3939
2314	3957
2314	3969
2314	4070
2314	4107
2314	4522
2314	4982
2314	4993
2315	2341
2315	2457
2315	3139
2315	3232
2315	3481
2315	3883
2315	4380
2316	2439
2316	3416
2316	3737
2316	3782
2316	4066
2316	4444
2316	4619
2316	4868
2317	2402
2317	2956
2317	3152
2317	4063
2317	4176
2318	2692
2318	3375
2318	3600
2318	3719
2318	4470
2319	2418
2319	3556
2319	3797
2319	4076
2319	4096
2320	2487
2320	2611
2320	2626
2320	2644
2320	2688
2320	2737
2320	4741
2320	4967
2321	2557
2321	2793
2321	3214
2321	3463
2321	3614
2321	4273
2321	4811
2322	2766
2322	3026
2322	3388
2322	3623
2322	4557
2323	2391
2323	2657
2323	3439
2323	4998
2324	2654
2324	2825
2324	3671
2324	3716
2324	4030
2324	4056
2324	4182
2324	4266
2324	4757
2324	4966
2326	2327
2326	2901
2326	3002
2326	3059
2326	3444
2326	3486
2326	3664
2326	3717
2327	2343
2327	2640
2327	2984
2327	3355
2327	3828
2327	4359
2327	4428
2328	2580
2328	2625
2328	2997
2328	3188
2328	4210
2328	4319
2328	4436
2328	4499
2328	4624
2329	2404
2329	2851
2329	3141
2329	3186
2329	3281
2329	3524
2329	4208
2329	4215
2329	4996
2330	2399
2330	3501
2330	3718
2330	3977
2330	4750
2331	2477
2331	2715
2331	3450
2331	4782
2331	4993
2332	3135
2332	4796
2333	2348
2333	2569
2333	2698
2333	2746
2333	3045
2333	3070
2333	3126
2333	3311
2333	3552
2333	3746
2333	3828
2333	4291
2333	4638
2333	4775
2333	4847
2333	4974
2334	2359
2334	2687
2334	2737
2334	3357
2334	3456
2334	4712
2335	2898
2335	3116
2335	3452
2335	3551
2335	3555
2335	3728
2335	4816
2336	3282
2336	3920
2336	4738
2337	3208
2337	3845
2338	2550
2338	2601
2338	2644
2338	2845
2338	2903
2338	3130
2338	4449
2338	4648
2339	2725
2339	2893
2339	3019
2339	3132
2339	3514
2340	2370
2340	2692
2340	2766
2340	3959
2340	4415
2340	4439
2340	4765
2341	2858
2341	4020
2341	4323
2341	4883
2342	2634
2342	2651
2342	3403
2342	4476
2342	4835
2342	4979
2343	2453
2343	2728
2343	2861
2343	2866
2343	2999
2343	3038
2343	3681
2343	3835
2343	3846
2343	3867
2343	4017
2343	4075
2343	4469
2343	4848
2343	4885
2343	4968
2344	2690
2344	3041
2344	3315
2344	3513
2344	3936
2344	4334
2344	4779
2344	4841
2345	2437
2345	2670
2345	3151
2345	3172
2345	3641
2345	3997
2345	4148
2345	4623
2345	4956
2346	2480
2346	2503
2346	2677
2346	2725
2346	3022
2346	3522
2346	3598
2347	2357
2347	2364
2347	2414
2347	2888
2347	2928
2347	2949
2347	4571
2348	3011
2348	3539
2348	3730
2348	3798
2348	3861
2348	4144
2348	4665
2350	2405
2350	2515
2350	2573
2350	3043
2350	3810
2350	4504
2350	4545
2351	2618
2351	3504
2351	3672
2351	3931
2351	4336
2352	2472
2352	2609
2352	2858
2352	3034
2352	3956
2353	2553
2353	2842
2353	2888
2353	3015
2353	3215
2353	3857
2353	4527
2353	4610
2354	2410
2354	3044
2354	3394
2354	3440
2354	4504
2354	4600
2354	4705
2355	2747
2355	3273
2355	3312
2355	3632
2355	3760
2355	3885
2355	4276
2355	4772
2355	4790
2356	2720
2356	3911
2356	3952
2357	2665
2357	2942
2357	3144
2357	3528
2357	4676
2357	4724
2357	4813
2357	4930
2358	2431
2358	3305
2358	3565
2359	2452
2359	2950
2359	3717
2359	4169
2359	4898
2360	2560
2360	2564
2360	2567
2360	2842
2360	3507
2360	4153
2360	4732
2361	2704
2361	2821
2361	3433
2361	3660
2361	4382
2361	4565
2361	4674
2361	4783
2361	4935
2361	4960
2362	2637
2362	3064
2362	3972
2362	4244
2362	4933
2363	3565
2364	2493
2364	2737
2364	2772
2364	3293
2364	3893
2364	4201
2365	2874
2365	3184
2365	3453
2365	3786
2365	3851
2365	3898
2365	4355
2366	2502
2366	2686
2366	3145
2366	3431
2366	3453
2366	3459
2366	4783
2366	4832
2367	2868
2367	2955
2367	2981
2367	3429
2367	3657
2367	4806
2368	2419
2368	2425
2368	2703
2368	3141
2368	3634
2368	3732
2368	4184
2368	4528
2368	4584
2369	2523
2369	2605
2369	3504
2369	4399
2369	4828
2370	2933
2370	3141
2370	3553
2370	3628
2370	3789
2370	4370
2370	4913
2371	2639
2371	4259
2371	4743
2372	2394
2372	2927
2372	2963
2372	3366
2372	3433
2372	3661
2372	3754
2372	3938
2372	4777
2373	2552
2373	3144
2373	3280
2373	3521
2373	3591
2373	4009
2373	4139
2374	2680
2374	3748
2374	3913
2375	2563
2375	2638
2375	2693
2375	2986
2375	3061
2375	3419
2375	3465
2375	4030
2376	3315
2376	3350
2376	3557
2376	3677
2376	3904
2376	3926
2376	4361
2376	4391
2376	4923
2377	2576
2377	2627
2377	2824
2377	3013
2377	3702
2377	4207
2377	4392
2377	4889
2378	2473
2378	2509
2378	2521
2378	2880
2378	3627
2378	3655
2378	4200
2379	2916
2379	3095
2379	3719
2379	4354
2380	2529
2380	3180
2380	3717
2380	4117
2380	4272
2380	4442
2380	4595
2381	2554
2381	2598
2381	2599
2381	2734
2381	2797
2381	3298
2381	3517
2381	3664
2381	4305
2381	4936
2382	2402
2382	2663
2382	3526
2382	4353
2382	4454
2382	4636
2382	4867
2383	2482
2383	3526
2383	3859
2383	4525
2384	3015
2384	3473
2384	3869
2384	3899
2384	4673
2385	2600
2385	2948
2385	3325
2385	4857
2386	2387
2386	2405
2386	4658
2387	2488
2387	2705
2387	3015
2387	3538
2387	3737
2387	3904
2387	4649
2387	4748
2387	4971
2388	2502
2388	2765
2388	3055
2388	3393
2388	4640
2389	2503
2389	4489
2390	2661
2390	2837
2390	3325
2390	3419
2390	3897
2390	4042
2390	4930
2391	2604
2391	2687
2391	2860
2391	2944
2391	3363
2391	4296
2391	4304
2391	4458
2391	4520
2391	4690
2392	2452
2392	3351
2392	4295
2392	4739
2393	2712
2393	2990
2393	3419
2393	3450
2393	3479
2393	3547
2393	3680
2393	4517
2393	4969
2394	4515
2395	4981
2396	2566
2396	2978
2396	3738
2396	3850
2396	4177
2396	4477
2396	4832
2397	2412
2397	2969
2397	2999
2397	3432
2397	3526
2397	3600
2397	4119
2397	4349
2397	4719
2397	4749
2397	4875
2398	3328
2398	3884
2398	4098
2398	4744
2399	2981
2400	2510
2400	3364
2400	3551
2400	4599
2401	2763
2401	2894
2401	2915
2401	3238
2401	3254
2401	3280
2401	3542
2401	3637
2401	3671
2401	3949
2401	4222
2401	4234
2401	4450
2401	4926
2401	4988
2402	3218
2402	3763
2402	3775
2403	3276
2403	3776
2403	4132
2403	4532
2404	2477
2404	2582
2404	3276
2404	3521
2404	3735
2404	3828
2404	4420
2404	4923
2405	3010
2405	3916
2405	4350
2405	4414
2406	2532
2406	2637
2406	2755
2406	3189
2406	3410
2406	3748
2406	4525
2406	4639
2406	4742
2406	4745
2406	4956
2407	2553
2407	3988
2408	2591
2408	4314
2408	4401
2409	2551
2409	2576
2409	3315
2409	3703
2409	4608
2409	4711
2409	4832
2410	2681
2410	4032
2410	4153
2410	4633
2411	2438
2411	2877
2411	4963
2412	2833
2412	3325
2412	3735
2412	3757
2412	4014
2413	3999
2413	4807
2414	2624
2414	2764
2414	2847
2414	2995
2414	3185
2414	3863
2414	4359
2414	4605
2414	4678
2414	4894
2415	2506
2415	3328
2415	3579
2415	3626
2416	2576
2416	2769
2416	2785
2416	3111
2416	3371
2416	4301
2416	4493
2416	4615
2416	4685
2416	4750
2417	3477
2417	3573
2418	2860
2418	3205
2418	3250
2418	3298
2418	3325
2418	3896
2418	4343
2418	4836
2419	2491
2419	2599
2419	4008
2419	4135
2419	4411
2420	2623
2420	3107
2420	3279
2420	3306
2420	3363
2420	3539
2420	4319
2420	4451
2420	4594
2420	4714
2421	2740
2421	2846
2421	3051
2421	4423
2421	4427
2421	4760
2422	2992
2422	3305
2422	4260
2422	4412
2422	4528
2423	2846
2423	3237
2423	4133
2424	2698
2424	2849
2424	2971
2424	3045
2424	3440
2424	3491
2424	4686
2425	2674
2425	2720
2425	2797
2425	3307
2425	3365
2425	3422
2425	3973
2425	4141
2425	4159
2426	2598
2426	2876
2426	3299
2426	3319
2426	4100
2426	4223
2426	4269
2426	4970
2427	2454
2427	3171
2427	3354
2427	3472
2427	3559
2427	4017
2427	4537
2428	2709
2428	2851
2428	2903
2428	2998
2428	3448
2428	4300
2428	4591
2428	4889
2429	2500
2429	2971
2429	3126
2429	4439
2429	4485
2430	3218
2430	3386
2430	4572
2430	4627
2430	4830
2431	2654
2432	2450
2432	2469
2432	2530
2432	2707
2432	3061
2432	3340
2432	3423
2432	3471
2432	3756
2432	3857
2432	3882
2432	3966
2432	4593
2432	4913
2433	3305
2433	3508
2433	3594
2433	4143
2434	3216
2434	3379
2434	3417
2435	2691
2435	2739
2435	2942
2435	3147
2435	3205
2435	3373
2435	4393
2435	4638
2435	4910
2436	2516
2436	2865
2436	3115
2437	3116
2437	3349
2437	3710
2437	3739
2437	4636
2437	4712
2438	2618
2438	3544
2438	3910
2439	2623
2439	2672
2439	3713
2439	3742
2439	4141
2439	4404
2440	2574
2440	2890
2440	3769
2440	3924
2440	4041
2440	4658
2440	4867
2441	2565
2441	2694
2441	2711
2441	3098
2441	3422
2441	3762
2442	2488
2442	2668
2442	2675
2442	2759
2442	3019
2442	3701
2442	4328
2443	2920
2443	3184
2443	3894
2443	4064
2444	2538
2444	2641
2444	2908
2444	3013
2444	3215
2444	3644
2444	3677
2444	3748
2444	3754
2444	3951
2444	4602
2444	4672
2444	4725
2444	4746
2444	4748
2445	2538
2445	2646
2445	3276
2445	3464
2445	3499
2445	4800
2446	3026
2446	3165
2446	3774
2446	3957
2446	4354
2446	4762
2446	4815
2446	4903
2446	4908
2447	2673
2447	2814
2447	2899
2447	3090
2447	3415
2447	4061
2447	4080
2447	4155
2447	4424
2447	4627
2447	4807
2448	2980
2448	3167
2448	3339
2448	3398
2448	3565
2448	3781
2448	4810
2449	2471
2449	2959
2449	3022
2450	2522
2450	2676
2450	3913
2450	3925
2450	3987
2450	4474
2450	4549
2451	3033
2451	3335
2451	3415
2451	4096
2451	4495
2451	4654
2452	2571
2452	2633
2452	2774
2452	2779
2452	3038
2452	3206
2452	3275
2452	3466
2452	4092
2453	2496
2453	4269
2454	2744
2454	3215
2454	3644
2454	3743
2454	4635
2455	2489
2455	2849
2455	3126
2455	3903
2455	4893
2456	2872
2456	3174
2456	3177
2456	3430
2456	3519
2456	3793
2457	2580
2457	2708
2457	2724
2457	2761
2457	3008
2457	3419
2457	3519
2457	3675
2457	4298
2457	4442
2457	4597
2457	4940
2458	2865
2458	3070
2458	3514
2458	3602
2458	4384
2458	4481
2458	4501
2458	4510
2458	4968
2459	2622
2459	2644
2459	2766
2459	2864
2459	2979
2459	3568
2459	3794
2459	3987
2459	4253
2459	4443
2459	4539
2459	4662
2459	4685
2460	2839
2460	2920
2460	2931
2460	3786
2460	3794
2460	4936
2461	3222
2461	3684
2461	3890
2461	4068
2461	4973
2462	2495
2462	3054
2462	3138
2462	3187
2462	3193
2462	3247
2462	3262
2462	3334
2462	3823
2462	4614
2462	4653
2462	4722
2463	2588
2463	2622
2463	2760
2463	2765
2463	3243
2463	4619
2464	2476
2464	3791
2464	4330
2465	3327
2465	3579
2466	2803
2466	3163
2466	4362
2466	4620
2467	2990
2467	3548
2467	3753
2467	3985
2467	4206
2467	4919
2468	2590
2468	2776
2468	3326
2468	4132
2468	4215
2468	4612
2468	4769
2469	2475
2469	3102
2469	3190
2469	3416
2469	3605
2469	3733
2469	3753
2469	4009
2469	4281
2470	3208
2470	3917
2471	4028
2471	4390
2472	2667
2472	2818
2472	3067
2472	4047
2472	4440
2472	4492
2472	4754
2473	2524
2473	2799
2473	3102
2473	3249
2473	3293
2473	3717
2473	4998
2474	2660
2474	2877
2474	3567
2475	2591
2475	2806
2475	2935
2475	3038
2475	3243
2475	3331
2475	3628
2475	3724
2475	3824
2475	4002
2475	4421
2475	4778
2475	4796
2475	4922
2475	4959
2476	2967
2476	3055
2476	3085
2476	3503
2476	3546
2476	3691
2476	3808
2476	3972
2476	4038
2476	4380
2476	4727
2476	4937
2476	4969
2477	2520
2477	2756
2477	2897
2477	2920
2477	3042
2477	3287
2477	3923
2477	3964
2477	4660
2478	2675
2478	2976
2478	3644
2478	4792
2478	4798
2479	3121
2479	3313
2479	4261
2479	4525
2480	2486
2480	3104
2480	3356
2480	3717
2480	3939
2481	2951
2481	3230
2481	3327
2481	3422
2481	3638
2481	4114
2481	4597
2482	3714
2482	3789
2483	2957
2483	2983
2483	3252
2483	3894
2483	4698
2484	3462
2484	3523
2484	3941
2485	2524
2485	2892
2485	2985
2485	3188
2485	3705
2485	4022
2485	4308
2486	2732
2486	3599
2486	3665
2486	3684
2486	4104
2486	4135
2486	4597
2486	4601
2487	2645
2487	3222
2487	4117
2487	4284
2487	4299
2488	3443
2488	3893
2488	4587
2489	2770
2489	3682
2489	3852
2489	4206
2489	4841
2489	4883
2490	2608
2490	2746
2490	2944
2490	4239
2490	4629
2491	2688
2491	4141
2491	4501
2492	3690
2492	3809
2492	4360
2492	4459
2492	4864
2493	2965
2493	3534
2493	3599
2493	3748
2493	3981
2493	4597
2494	2717
2494	3499
2494	3666
2494	4239
2494	4392
2494	4814
2495	2908
2495	2980
2495	4204
2495	4784
2496	2512
2496	3168
2496	4029
2496	4164
2496	4530
2497	2643
2497	2663
2497	2893
2497	3017
2497	4310
2497	4636
2497	4857
2498	2510
2498	3123
2498	3228
2498	4004
2498	4125
2499	2870
2499	3080
2499	3600
2499	3841
2499	4231
2500	2808
2500	3652
2500	4126
2500	4137
2500	4303
2500	4689
2501	2755
2501	3300
2501	3309
2501	3494
2501	4096
2501	4346
2501	4549
2502	2963
2502	2975
2502	3301
2502	3481
2503	2827
2503	3864
2503	3993
2503	4259
2503	4557
2503	4721
2504	2899
2504	3225
2504	3630
2504	3914
2504	4585
2505	2579
2505	2748
2505	3634
2505	3770
2505	4082
2505	4302
2505	4665
2505	4992
2506	3054
2506	3298
2506	3666
2506	4288
2506	4350
2506	4676
2506	4792
2506	4863
2507	2816
2507	3400
2507	3588
2507	4232
2507	4702
2507	4727
2508	2672
2508	3139
2508	4101
2508	4213
2508	4297
2508	4571
2508	4603
2508	4697
2508	4943
2509	2650
2509	3149
2509	3179
2509	3248
2509	3651
2509	3725
2509	4967
2509	4979
2510	2864
2510	3428
2510	4451
2510	4591
2510	4868
2511	2676
2511	3686
2511	3787
2511	3913
2511	4258
2511	4856
2512	2584
2512	2779
2512	3019
2512	3045
2512	3084
2512	3295
2512	3453
2512	3533
2512	3767
2512	3815
2512	4862
2513	2934
2513	2947
2513	3139
2513	3272
2514	2641
2514	2751
2514	2953
2514	3288
2514	3452
2514	3494
2514	3749
2514	3918
2514	3976
2514	4146
2514	4202
2514	4248
2514	4293
2514	4570
2515	3168
2515	3218
2515	3473
2515	4057
2515	4084
2516	2653
2516	2822
2516	3373
2516	3563
2516	3645
2516	4159
2516	4881
2517	3261
2517	4837
2518	3236
2518	3265
2518	3426
2518	3578
2518	4554
2519	2595
2520	2793
2520	2896
2520	3310
2520	3552
2520	4197
2521	2618
2521	2867
2521	3115
2521	4282
2521	4351
2521	4513
2522	2861
2522	2919
2522	3364
2522	3476
2522	3547
2522	4127
2522	4218
2522	4372
2523	3064
2523	3247
2523	3471
2523	3659
2523	3798
2523	3836
2523	3963
2523	4062
2523	4319
2523	4505
2524	2551
2524	2753
2524	2779
2524	3180
2524	3448
2524	3450
2524	4006
2524	4552
2524	4967
2525	2652
2525	2964
2525	3225
2525	3410
2525	3449
2525	3612
2525	3613
2525	3797
2525	3924
2525	4185
2525	4191
2525	4317
2525	4465
2525	4572
2526	3151
2526	3158
2526	3362
2526	3420
2526	3629
2526	3932
2527	2603
2527	2948
2527	3345
2527	3456
2527	3734
2527	4016
2527	4344
2528	2996
2528	3021
2528	3137
2528	3326
2528	3577
2528	4762
2529	2664
2529	2730
2529	3431
2529	3608
2529	4278
2529	4802
2530	2763
2530	3027
2530	3882
2530	4117
2531	2613
2531	3294
2531	3709
2531	3752
2531	4881
2532	2935
2532	3244
2532	3512
2532	3912
2532	4226
2532	4311
2532	4315
2532	4538
2532	4845
2533	2667
2533	2773
2533	2802
2533	3655
2533	4314
2534	2839
2534	2937
2534	3293
2534	3413
2534	3505
2535	2643
2535	3524
2535	3889
2535	4953
2535	4996
2536	3121
2536	3284
2536	3472
2536	4098
2536	4305
2536	4692
2537	2630
2537	3119
2537	3186
2538	2796
2539	2850
2539	3107
2539	3118
2539	3515
2539	4124
2540	2829
2540	3134
2540	3982
2540	4563
2541	2706
2541	3449
2541	3698
2541	3827
2541	4085
2541	4534
2542	2848
2542	3359
2542	3536
2542	4748
2543	2736
2543	2848
2543	2851
2543	2869
2543	3041
2543	3623
2543	4231
2543	4535
2544	2790
2544	2817
2544	2922
2544	3159
2544	3615
2544	4117
2544	4430
2544	4530
2544	4787
2545	2822
2545	2984
2545	3003
2545	4352
2545	4430
2545	4463
2546	3471
2546	4734
2547	2635
2547	3083
2547	3475
2547	3870
2547	4152
2547	4687
2547	4878
2547	4908
2548	2614
2548	2924
2548	2975
2548	2993
2548	3010
2548	3114
2548	3377
2548	4379
2548	4706
2548	4879
2549	3636
2549	3715
2549	4406
2550	2726
2550	2783
2550	2927
2550	3061
2550	3067
2550	3102
2550	3714
2550	4200
2550	4283
2550	4488
2550	4566
2550	4841
2551	2697
2551	3288
2551	3344
2551	3741
2551	4115
2551	4579
2551	4837
2551	4946
2552	2671
2552	3172
2552	3545
2552	4337
2553	2703
2553	2835
2553	3300
2553	3367
2553	3376
2553	3464
2553	4241
2553	4331
2554	2857
2554	3037
2554	3670
2554	4036
2554	4507
2554	4578
2554	4654
2554	4973
2555	3094
2555	3943
2555	4993
2556	4221
2556	4395
2557	3356
2557	3468
2557	3702
2557	4453
2557	4454
2557	4652
2557	4822
2558	3079
2558	3667
2558	4176
2558	4840
2558	4982
2559	2679
2559	3048
2559	3186
2559	3242
2559	3486
2559	3597
2559	3671
2560	2574
2560	2672
2560	2852
2560	3091
2560	3103
2560	3252
2560	3434
2560	3623
2560	3785
2560	3904
2560	3991
2560	4145
2560	4451
2561	2834
2561	3118
2561	3133
2561	3215
2561	3864
2561	4177
2561	4244
2561	4668
2561	4892
2562	2949
2562	3068
2562	3788
2562	3850
2562	4171
2562	4758
2562	4956
2563	2700
2563	2722
2563	2772
2563	3249
2563	3661
2563	4130
2564	2644
2564	3345
2564	3594
2564	4022
2564	4329
2564	4359
2564	4569
2565	2571
2566	2569
2566	2636
2566	2716
2566	3164
2566	3305
2566	3330
2566	3512
2566	3789
2566	4502
2566	4646
2566	4970
2566	4997
2567	2957
2567	3190
2567	3254
2567	4957
2568	2823
2568	2898
2568	3016
2568	3166
2568	3822
2568	4454
2568	4474
2569	3222
2569	3270
2569	3314
2569	3416
2569	4051
2569	4482
2570	3411
2570	3928
2570	4052
2570	4989
2571	2751
2571	2935
2571	3908
2571	4219
2571	4292
2571	4470
2572	2610
2572	3570
2572	3834
2572	4380
2572	4982
2573	2991
2573	3172
2573	4076
2573	4441
2574	2891
2574	4331
2574	4627
2575	2662
2575	2756
2575	2939
2575	4368
2575	4594
2575	4643
2575	4715
2576	3255
2576	4358
2576	4469
2576	4702
2577	3160
2577	4449
2577	4560
2577	4892
2578	2754
2578	3185
2578	4383
2578	4394
2578	4863
2579	2609
2579	2926
2579	3081
2579	3193
2579	3908
2579	4139
2579	4216
2579	4303
2579	4342
2579	4455
2579	4636
2580	2892
2580	4018
2580	4701
2580	4722
2580	4788
2580	4896
2581	2765
2581	3287
2581	4119
2581	4291
2581	4364
2581	4385
2581	4920
2582	2785
2582	2904
2582	2916
2582	3746
2582	3762
2582	3975
2582	4051
2582	4191
2582	4210
2582	4394
2583	3073
2583	3211
2583	3300
2583	3548
2583	3619
2583	4213
2583	4354
2583	4395
2583	4446
2583	4663
2584	3183
2584	4078
2584	4185
2585	3775
2585	3971
2585	4582
2585	4987
2586	2806
2586	4483
2586	4825
2586	4906
2587	2800
2587	3775
2587	4148
2587	4227
2587	4424
2588	2937
2588	3254
2588	3763
2588	3849
2588	4613
2588	4681
2588	4709
2588	4987
2589	3209
2589	3784
2590	2804
2590	2925
2590	3230
2590	3235
2590	4235
2590	4776
2591	3112
2591	3244
2591	3645
2591	4436
2591	4996
2592	2733
2592	2842
2592	3327
2592	3614
2592	4048
2592	4231
2592	4557
2592	4761
2592	4872
2593	2811
2593	3426
2593	3895
2593	3975
2593	3980
2593	4203
2593	4442
2593	4888
2593	4969
2594	3274
2594	3630
2594	4913
2595	3049
2595	3497
2595	3892
2595	4707
2595	4922
2596	2695
2596	2816
2596	2921
2596	3245
2596	3254
2596	3513
2596	3591
2596	4039
2596	4253
2596	4273
2596	4774
2597	2721
2597	3104
2597	3153
2597	3722
2597	4019
2597	4608
2597	4909
2597	4965
2598	4662
2598	4735
2599	2981
2599	3423
2599	3866
2599	4169
2599	4467
2600	2884
2600	3164
2600	3510
2600	3665
2600	3820
2600	4034
2600	4259
2600	4308
2600	4630
2600	4796
2601	3245
2601	4118
2601	4299
2601	4642
2601	4784
2601	4874
2602	4361
2603	3720
2603	3848
2603	4142
2604	3217
2604	3270
2604	3881
2605	2823
2605	3512
2605	4014
2605	4031
2605	4160
2605	4238
2606	2743
2606	2848
2606	2890
2606	4219
2606	4587
2606	4611
2607	2654
2607	2873
2607	2988
2607	3082
2607	4380
2607	4516
2607	4629
2607	4676
2607	4827
2607	4949
2608	2894
2608	2994
2608	3058
2608	3398
2608	3446
2608	3611
2608	3757
2608	4057
2608	4203
2608	4674
2609	2612
2609	2627
2609	2642
2609	2769
2609	3408
2609	3697
2609	4785
2609	4979
2610	2676
2610	3636
2610	4267
2611	3103
2611	3826
2611	3902
2612	2722
2612	2807
2612	3127
2612	3282
2612	3968
2612	4316
2612	4373
2612	4477
2613	2880
2613	2995
2613	3379
2613	4070
2613	4266
2614	4017
2614	4388
2614	4755
2615	2956
2615	3961
2615	4021
2615	4125
2615	4822
2616	4030
2616	4077
2616	4321
2617	3269
2617	3449
2617	4108
2617	4999
2618	3505
2618	3821
2618	4132
2618	4385
2619	2754
2619	2912
2619	2995
2619	3030
2619	3164
2619	3251
2619	3409
2619	3537
2619	3712
2619	4035
2619	4180
2619	4552
2619	4607
2619	4771
2620	3586
2620	3622
2621	2853
2621	4679
2622	3348
2622	3401
2622	4222
2622	4262
2622	4790
2623	3128
2623	3382
2623	4893
2623	4926
2624	2832
2624	3570
2624	4045
2624	4288
2624	4339
2625	2695
2625	3389
2625	4537
2625	4595
2626	2663
2626	3004
2626	3696
2626	4724
2627	2966
2627	3146
2627	3373
2627	4356
2627	4771
2627	4899
2628	2735
2628	2815
2628	3098
2628	3976
2628	4045
2628	4326
2628	4340
2628	4539
2629	3636
2629	3669
2629	4043
2629	4713
2629	4931
2630	2704
2630	3365
2630	3804
2630	4925
2631	3042
2631	3170
2631	3400
2631	3542
2631	3960
2631	4150
2631	4443
2632	3073
2632	3191
2632	4882
2633	3099
2633	3176
2633	4983
2634	2698
2634	3042
2634	3334
2634	3671
2634	4341
2634	4546
2634	4671
2635	2755
2635	2806
2635	2838
2635	2993
2635	3347
2635	3561
2635	3907
2635	3916
2635	4235
2635	4349
2636	2671
2636	3088
2636	3177
2636	3275
2636	3466
2636	3697
2636	4231
2636	4342
2636	4479
2636	4707
2636	4858
2636	4897
2637	2957
2637	3001
2637	3163
2637	3286
2637	4660
2638	2678
2638	2724
2638	2964
2638	3443
2638	4079
2638	4431
2639	2879
2639	3162
2640	2870
2640	3110
2640	4004
2640	4354
2641	3095
2641	3118
2641	4548
2642	3216
2642	3436
2642	3455
2642	3784
2642	3908
2642	3979
2642	4754
2643	2776
2643	2954
2643	3443
2643	4365
2643	4958
2644	3721
2644	4479
2645	2661
2645	2701
2645	2800
2645	2848
2645	4215
2646	3177
2646	3826
2646	4183
2646	4836
2647	3070
2647	3406
2647	3610
2647	4552
2647	4910
2648	2715
2648	2718
2648	3023
2648	3359
2648	4056
2648	4221
2648	4422
2648	4548
2648	4676
2648	4833
2648	4880
2648	4960
2649	2896
2649	2903
2649	2964
2649	3581
2649	3754
2649	3987
2649	4272
2649	4466
2650	3058
2650	3601
2650	3921
2651	2981
2651	3130
2651	3347
2652	2714
2652	3373
2652	3532
2652	4367
2653	3697
2653	3829
2653	4569
2653	4799
2653	4924
2654	2694
2654	3014
2654	3175
2654	3260
2654	3393
2654	3970
2654	4776
2655	2811
2655	2995
2655	3116
2655	3587
2655	3734
2655	3829
2655	3936
2655	4677
2655	4887
2656	3601
2656	4939
2657	3060
2657	3570
2657	3637
2657	4013
2657	4782
2658	2798
2658	3266
2658	3271
2658	3354
2658	3627
2658	4084
2658	4595
2658	4809
2659	2672
2659	3432
2659	4109
2659	4306
2659	4689
2659	4827
2660	2715
2660	3401
2660	4975
2661	2928
2661	2937
2661	2986
2661	3554
2661	3566
2661	4379
2661	4797
2662	3308
2662	3543
2662	4002
2663	2951
2663	3783
2663	4351
2664	2866
2664	3021
2664	3083
2664	3288
2664	3469
2664	4053
2664	4277
2664	4409
2664	4433
2665	2838
2665	2952
2665	3780
2665	4087
2665	4282
2666	2712
2666	3082
2666	3321
2666	3447
2666	3495
2666	4222
2666	4281
2667	2726
2667	2810
2667	2962
2667	3035
2667	4064
2667	4310
2668	2831
2668	2980
2668	3468
2668	4183
2668	4510
2668	4856
2669	2834
2669	4288
2670	2712
2670	4739
2671	2958
2671	3217
2671	3846
2671	4489
2671	4621
2672	3006
2672	3055
2672	3277
2672	3724
2672	4404
2672	4480
2672	4885
2673	3132
2673	3277
2673	4059
2673	4536
2674	2679
2674	3042
2674	3302
2674	3625
2674	4139
2674	4532
2675	3271
2675	3905
2675	3906
2675	4549
2676	2744
2676	3407
2676	3522
2676	4594
2677	2850
2677	3984
2677	4211
2677	4615
2678	3550
2678	3800
2678	3909
2678	4014
2678	4024
2678	4101
2679	2770
2679	2992
2679	3789
2679	3867
2679	4037
2679	4263
2679	4814
2680	3465
2680	3563
2680	4345
2680	4363
2680	4766
2680	4838
2681	3591
2681	3837
2681	4086
2681	4333
2681	4441
2682	3345
2682	3454
2682	3523
2682	3541
2682	4900
2683	3472
2683	3605
2683	3644
2683	3780
2683	3880
2683	4917
2684	2764
2684	2887
2684	3095
2684	3609
2684	3681
2684	4616
2684	4804
2685	2824
2685	3494
2685	3635
2685	4036
2685	4363
2685	4432
2685	4984
2686	4394
2686	4586
2687	3356
2687	3533
2687	3662
2687	4234
2687	4490
2687	4568
2688	2850
2688	2873
2688	3620
2688	3796
2688	3961
2688	4660
2689	3302
2689	4148
2689	4488
2689	4580
2689	4764
2690	3021
2690	3153
2690	3277
2690	3778
2690	4462
2691	2833
2691	4214
2692	3141
2692	4268
2693	2716
2693	3472
2693	3654
2693	4015
2693	4518
2693	4694
2693	4701
2694	3063
2694	3390
2694	4573
2695	2879
2695	3002
2695	3355
2695	3586
2695	3710
2695	3982
2696	4942
2697	3289
2697	3607
2697	3710
2697	4955
2698	2811
2698	3167
2698	3620
2698	4116
2699	2896
2699	3519
2699	3561
2699	3671
2699	3933
2699	3976
2699	4046
2699	4336
2699	4426
2700	2867
2700	2949
2700	3766
2700	4156
2700	4339
2701	2766
2701	2824
2701	3799
2701	4088
2701	4506
2701	4772
2701	4853
2702	3356
2702	3910
2702	4118
2702	4665
2702	4986
2703	3215
2703	4709
2704	2782
2704	3535
2705	3564
2705	3626
2705	4074
2705	4228
2705	4268
2705	4454
2705	4469
2706	2762
2706	2988
2706	3074
2706	3285
2706	3361
2706	3565
2706	3685
2706	3854
2706	4049
2706	4112
2706	4661
2706	4670
2706	4859
2707	3667
2707	4011
2707	4365
2707	4375
2707	4426
2707	4583
2707	4798
2707	4865
2708	2770
2708	2929
2708	3053
2708	3156
2708	3482
2708	3491
2708	3671
2708	4163
2708	4274
2708	4840
2709	3819
2709	4519
2709	4575
2710	3647
2710	4234
2710	4347
2710	4520
2710	4874
2710	4930
2711	3019
2711	3417
2711	3704
2711	3875
2711	4162
2711	4657
2711	4961
2712	3062
2712	3503
2712	4517
2712	4786
2713	3459
2713	3813
2713	3894
2713	4275
2713	4657
2713	4760
2714	3011
2714	3039
2714	3416
2714	3921
2714	4066
2714	4206
2714	4216
2714	4711
2714	4955
2715	2783
2715	3123
2715	3378
2715	3414
2715	4170
2715	4292
2715	4612
2715	4867
2716	3247
2716	3711
2716	3817
2716	3838
2717	2719
2717	2917
2717	3307
2717	3845
2717	4246
2717	4621
2718	2978
2718	2998
2718	3518
2718	3850
2718	4229
2718	4438
2718	4595
2718	4621
2719	2722
2719	2842
2719	3359
2719	3516
2719	3679
2719	3998
2719	4416
2719	4611
2720	2729
2720	2741
2720	2836
2720	3616
2720	4415
2720	4627
2721	4783
2722	2958
2722	3773
2722	3988
2722	4629
2722	4799
2723	2979
2723	3069
2723	4962
2724	2738
2724	4084
2724	4102
2725	2784
2725	3483
2725	4055
2725	4967
2726	2913
2726	3846
2726	3918
2726	4468
2727	3238
2727	3293
2727	3399
2727	3459
2727	4504
2727	4547
2728	2887
2728	3052
2728	3304
2728	3461
2728	3498
2728	3941
2728	4352
2728	4358
2728	4423
2729	3398
2729	3432
2729	4194
2729	4434
2729	4627
2730	2989
2730	4125
2730	4611
2730	4979
2731	3031
2731	4092
2731	4267
2731	4423
2731	4540
2731	4690
2731	4954
2732	2856
2732	2917
2732	4310
2732	4607
2733	2823
2733	3188
2733	3249
2733	3638
2733	4768
2734	2742
2734	2759
2734	2824
2734	3767
2734	4535
2734	4754
2735	2909
2735	2989
2735	3428
2735	3516
2735	3646
2735	3824
2735	4160
2735	4471
2735	4771
2735	4933
2736	2811
2736	2827
2736	3320
2736	3459
2736	4168
2736	4197
2736	4309
2736	4324
2736	4445
2736	4447
2736	4914
2736	4931
2736	4949
2737	2900
2737	2940
2737	2952
2737	2999
2737	3526
2737	3789
2737	4645
2737	4920
2737	4968
2738	4541
2738	4892
2739	2982
2739	3135
2739	3225
2739	3361
2739	3639
2739	4481
2739	4842
2740	2913
2740	3202
2740	3523
2740	4358
2740	4628
2740	4898
2741	2757
2741	3176
2741	3437
2741	3501
2741	3705
2741	3795
2741	3836
2741	3984
2741	4129
2741	4529
2741	4864
2742	2880
2742	3287
2742	4017
2742	4451
2742	4723
2742	4950
2742	4988
2743	3186
2743	3418
2743	3786
2743	4399
2743	4926
2744	2921
2744	4029
2744	4052
2745	3463
2745	3532
2745	4236
2746	2915
2746	4300
2746	4953
2747	3028
2748	2762
2748	3036
2748	3044
2748	3271
2748	4033
2749	2780
2749	3638
2749	3991
2749	4440
2749	4827
2750	3320
2750	3882
2751	2869
2751	2998
2751	4191
2751	4683
2751	4706
2752	2771
2752	2907
2752	3035
2752	3115
2752	3307
2752	3928
2752	4087
2752	4238
2752	4568
2752	4585
2752	4804
2753	3411
2753	3569
2753	4336
2753	4371
2754	2813
2754	3000
2754	3250
2754	3899
2754	4181
2754	4319
2754	4682
2754	4813
2755	2779
2755	3699
2755	3728
2755	3780
2755	3819
2755	4000
2755	4341
2755	4389
2756	2784
2756	2797
2756	3922
2756	4189
2757	2934
2757	3259
2757	3477
2757	3585
2757	4353
2757	4918
2757	4973
2758	2907
2758	3513
2758	4062
2758	4513
2758	4524
2758	4605
2758	4700
2758	4794
2759	2911
2759	2924
2759	3315
2759	3940
2759	4257
2759	4374
2759	4532
2760	3340
2760	3849
2760	4742
2761	3522
2761	3715
2762	3109
2762	3869
2762	4773
2762	4799
2762	4969
2763	3364
2763	3437
2763	3501
2763	3705
2763	3835
2763	4065
2763	4099
2763	4129
2763	4211
2764	3889
2764	4549
2765	2791
2765	2959
2765	3258
2765	3266
2765	3775
2765	3814
2765	3898
2765	3938
2765	4336
2765	4451
2765	4601
2766	3848
2766	4362
2766	4644
2767	3438
2767	3656
2767	3988
2767	4339
2767	4647
2768	3118
2768	4730
2769	3060
2769	4301
2769	4446
2769	4581
2769	4617
2769	4639
2769	4920
2770	3014
2770	3024
2770	4116
2770	4130
2770	4818
2770	4889
2770	4968
2771	3269
2771	3428
2771	4213
2772	3253
2772	3830
2772	3867
2772	4012
2773	3384
2774	2991
2774	3149
2774	3250
2774	4129
2775	3034
2775	3137
2775	3937
2776	2954
2776	3472
2776	4182
2776	4340
2776	4844
2777	2861
2777	3750
2777	4072
2777	4187
2777	4422
2777	4544
2777	4702
2777	4743
2777	4999
2778	3138
2778	3248
2779	3120
2779	3686
2779	3834
2779	4256
2779	4269
2779	4485
2780	2935
2780	3612
2780	3728
2780	3804
2780	4024
2780	4378
2781	2855
2781	2984
2781	3048
2781	3849
2782	3229
2782	3952
2782	4769
2783	2869
2783	3360
2783	3479
2783	3608
2783	3644
2783	3723
2783	3747
2783	4114
2783	4258
2783	4309
2783	4473
2783	4476
2783	4511
2783	4899
2784	2953
2784	2977
2784	3283
2784	3395
2784	3669
2784	3698
2784	3947
2784	3995
2784	4084
2784	4569
2785	2825
2785	2970
2785	3153
2785	3748
2785	3866
2785	4385
2785	4644
2785	4709
2785	4995
2786	2860
2786	3553
2786	4139
2786	4791
2786	4821
2786	4853
2787	2898
2787	3769
2787	3855
2787	4193
2787	4387
2787	4478
2787	4662
2788	2872
2788	4410
2789	3401
2789	3510
2789	3530
2789	3831
2789	3990
2789	4346
2789	4945
2790	4966
2791	2996
2791	3637
2791	3841
2791	4226
2792	2807
2792	3431
2792	3863
2793	3324
2793	3520
2793	3587
2793	3751
2793	3967
2793	4385
2793	4642
2793	4817
2794	3116
2794	3402
2794	3465
2794	3584
2794	3908
2794	3971
2794	4092
2794	4697
2794	4725
2794	4894
2795	2904
2795	3584
2795	3606
2795	3621
2795	3700
2796	3039
2796	3412
2796	3569
2796	4377
2796	4459
2796	4712
2797	2928
2797	2931
2797	2953
2797	4280
2797	4437
2797	4516
2797	4534
2798	2993
2798	3105
2798	3153
2798	3236
2798	3346
2798	3593
2798	3885
2798	3985
2798	4017
2798	4151
2798	4300
2798	4401
2799	2976
2799	3117
2799	3322
2799	3325
2799	3593
2799	3699
2799	3720
2799	4788
2800	2870
2800	3206
2800	4509
2801	4100
2802	2986
2802	3012
2802	3989
2803	3354
2803	3949
2803	4191
2803	4392
2804	3365
2804	4725
2805	2905
2805	3314
2805	3395
2805	3472
2805	3574
2805	4533
2806	2809
2806	3244
2806	3264
2806	3393
2806	3700
2806	3985
2806	4054
2806	4257
2806	4325
2807	2838
2807	3080
2807	3294
2807	3820
2807	4311
2807	4336
2808	3171
2808	3777
2808	4336
2809	2957
2809	3520
2809	4451
2810	3034
2810	3146
2810	3459
2810	3634
2810	4190
2810	4320
2811	2885
2811	3345
2811	3864
2811	4002
2811	4186
2811	4421
2812	2824
2812	3200
2812	3555
2812	3832
2812	3942
2813	2975
2813	3109
2813	3165
2813	3756
2813	3781
2813	3814
2813	4022
2813	4187
2813	4571
2813	4791
2813	4896
2813	4935
2814	2939
2814	3392
2814	3598
2814	3855
2814	3921
2814	4430
2814	4513
2814	4514
2814	4634
2815	3409
2815	3927
2815	4156
2815	4738
2816	3010
2816	3043
2816	3082
2816	3300
2816	3354
2816	4074
2816	4304
2817	2824
2817	2861
2817	3000
2817	3028
2817	4026
2817	4301
2817	4428
2817	4539
2817	4687
2817	4756
2817	4920
2818	3029
2818	3074
2818	3281
2818	3887
2818	4039
2818	4479
2818	4554
2818	4852
2819	3973
2819	4189
2819	4581
2820	3156
2820	3740
2820	4166
2820	4186
2820	4919
2820	4949
2821	3163
2821	3215
2821	3238
2821	3437
2821	3556
2821	3618
2821	3836
2821	3869
2821	3882
2821	4107
2821	4141
2821	4241
2821	4295
2821	4405
2821	4824
2822	3301
2822	4454
2823	3323
2823	3619
2823	3695
2823	4018
2823	4784
2824	2834
2824	2959
2824	3699
2824	4098
2824	4155
2824	4161
2824	4878
2825	3582
2826	3583
2826	3723
2826	4162
2826	4322
2826	4684
2826	4865
2827	3784
2827	4630
2827	4721
2827	4869
2828	2963
2828	3451
2828	4492
2828	4958
2829	2862
2829	3388
2829	3399
2829	3744
2829	4625
2829	4805
2830	3351
2830	4227
2830	4725
2830	4883
2831	3819
2831	3888
2832	3706
2832	3931
2832	4259
2833	2868
2833	3031
2833	3244
2833	3464
2833	3535
2833	3663
2833	4342
2833	4778
2834	2942
2834	2971
2834	2991
2834	3245
2834	4728
2835	2921
2835	3392
2835	3696
2835	4032
2835	4068
2835	4503
2836	3237
2836	3278
2836	4365
2836	4492
2836	4832
2836	4863
2837	3402
2837	3867
2837	4979
2838	3475
2838	3577
2838	3614
2838	3749
2838	3989
2838	4275
2838	4680
2839	3754
2839	3779
2839	3815
2839	3866
2839	4726
2839	4798
2840	2886
2840	3573
2840	3794
2841	4180
2842	3341
2842	3891
2842	4178
2843	3699
2843	3997
2843	4007
2843	4081
2843	4506
2843	4761
2843	4989
2844	3121
2844	3267
2844	3906
2844	3932
2845	3216
2845	3318
2845	3649
2845	4013
2845	4163
2845	4192
2845	4543
2845	4616
2846	3210
2846	3748
2846	4031
2846	4050
2847	3366
2847	3694
2847	3931
2847	4669
2848	3455
2848	4032
2848	4089
2848	4491
2848	4760
2848	4841
2849	3165
2849	3714
2849	4246
2849	4347
2849	4395
2849	4642
2850	2898
2850	3009
2850	3132
2851	3225
2851	3559
2851	3791
2851	4181
2851	4803
2851	4845
2851	4904
2852	3321
2852	3383
2852	3408
2852	3417
2852	3838
2852	3906
2852	3948
2852	4134
2852	4768
2853	4050
2853	4857
2854	2989
2854	3384
2854	3386
2854	3419
2854	3421
2854	3740
2854	4270
2854	4962
2855	2947
2855	3383
2855	3547
2855	3673
2855	3756
2855	4255
2855	4674
2856	3008
2856	4636
2856	4925
2857	3058
2857	3589
2857	3810
2857	4069
2857	4453
2857	4908
2858	3032
2858	3093
2858	3669
2858	3919
2858	4536
2859	3146
2859	4709
2860	2918
2860	3669
2861	2894
2861	3087
2861	3356
2861	4466
2861	4990
2862	3031
2862	3568
2862	3598
2862	3606
2862	4132
2862	4661
2862	4744
2863	3149
2863	3332
2863	3360
2863	3464
2863	3909
2863	4402
2863	4549
2863	4747
2864	3591
2864	3889
2864	4072
2864	4100
2864	4343
2864	4463
2865	3122
2865	3256
2865	3263
2865	3924
2865	4639
2865	4717
2865	4811
2866	3060
2866	3406
2866	3684
2866	3801
2866	3836
2866	4190
2866	4431
2866	4849
2867	2938
2867	4003
2867	4209
2867	4211
2868	2895
2868	2922
2868	4105
2868	4612
2868	4733
2868	4860
2868	4945
2869	2928
2869	2966
2869	3201
2869	3262
2869	3504
2869	3861
2869	3992
2869	4888
2870	3160
2870	3635
2870	4395
2870	4423
2871	3111
2871	4142
2872	3268
2872	3611
2872	3618
2872	3795
2872	3888
2872	4247
2872	4750
2873	4511
2874	3290
2874	3461
2874	3572
2874	3741
2874	4220
2874	4757
2874	4854
2875	3065
2875	3117
2875	3176
2875	3662
2875	3906
2875	4079
2875	4361
2875	4544
2876	2951
2876	3008
2876	3779
2876	3904
2876	3931
2876	4087
2877	2911
2877	4029
2877	4129
2877	4322
2877	4524
2878	3101
2878	3322
2878	4307
2878	4788
2878	4823
2879	3899
2880	3092
2881	2996
2881	3403
2881	3546
2881	4174
2882	3610
2882	3783
2882	4377
2882	4747
2883	3101
2883	3342
2883	3865
2883	4693
2884	2999
2884	3071
2884	3272
2884	3664
2884	3913
2884	4495
2885	2948
2885	3018
2885	3158
2885	3882
2885	3892
2886	3219
2886	3301
2886	3699
2886	4281
2886	4470
2886	4573
2886	4638
2886	4997
2887	3689
2887	4278
2888	3296
2888	3537
2889	3502
2889	3667
2889	4110
2889	4125
2889	4358
2890	3515
2890	4172
2891	3708
2891	4058
2892	3647
2892	3809
2892	3909
2892	4081
2892	4213
2892	4382
2892	4421
2892	4672
2893	3314
2893	3388
2893	3581
2893	4288
2894	3585
2894	3743
2894	3812
2894	3831
2894	3952
2894	4000
2894	4377
2895	3109
2895	4307
2896	3334
2896	3994
2897	3152
2897	3335
2897	3612
2897	4296
2897	4467
2898	3043
2898	3593
2898	3771
2898	4274
2898	4862
2899	2931
2899	3014
2899	3117
2899	3182
2899	3546
2899	3779
2899	4010
2899	4138
2899	4216
2899	4824
2900	2931
2900	3234
2900	3450
2900	3490
2900	3724
2900	3889
2900	4072
2900	4360
2901	3708
2901	3846
2901	4341
2901	4743
2902	3067
2902	3691
2902	3712
2902	4097
2902	4642
2902	4790
2903	3157
2903	3263
2903	3700
2904	3432
2904	3540
2904	4016
2904	4042
2904	4304
2904	4664
2904	4925
2905	3729
2905	3871
2905	4114
2905	4128
2905	4253
2905	4448
2906	2936
2906	3119
2906	3237
2906	3699
2906	3819
2906	4188
2906	4298
2906	4476
2906	4848
2907	2918
2908	3673
2908	3838
2908	3969
2908	4362
2908	4583
2908	4882
2909	3409
2909	3425
2909	3684
2909	3907
2910	4065
2911	3236
2911	3834
2911	4267
2912	3047
2912	3940
2912	4023
2912	4652
2913	3843
2913	4567
2914	4117
2915	3342
2915	3634
2915	3871
2915	3950
2915	4544
2916	3278
2916	3609
2917	3146
2917	3658
2917	3915
2917	4245
2918	3092
2918	3384
2918	3605
2918	3956
2918	3989
2919	3125
2919	3397
2919	3613
2919	4040
2919	4235
2919	4788
2919	4821
2919	4908
2920	3137
2920	4240
2920	4251
2920	4456
2920	4527
2921	3503
2921	3937
2921	3981
2922	3017
2922	3205
2922	3210
2922	3689
2922	4281
2922	4636
2922	4709
2923	3386
2923	3397
2923	3484
2923	3613
2923	3664
2923	3996
2923	4304
2923	4432
2923	4647
2923	4857
2924	3021
2924	3075
2924	3216
2924	3435
2924	3481
2924	3571
2924	4524
2924	4642
2925	3091
2925	3245
2925	3564
2925	4550
2926	3101
2926	3174
2926	3275
2926	3566
2926	3884
2926	4060
2926	4119
2926	4564
2927	3068
2927	3077
2927	3312
2927	4249
2927	4508
2927	4666
2928	3234
2928	3276
2929	3242
2929	3422
2929	4288
2929	4411
2929	4984
2930	2938
2930	3087
2930	3461
2930	4344
2930	4523
2930	4700
2930	4778
2930	4782
2930	4902
2931	2981
2931	3442
2931	4082
2931	4218
2931	4372
2931	4462
2931	4770
2931	4876
2931	4885
2931	4955
2932	3095
2932	3251
2932	3575
2932	4377
2933	3865
2933	4583
2934	3013
2934	3609
2934	3616
2934	4977
2935	3260
2935	3809
2935	3951
2935	3976
2935	4109
2935	4363
2935	4833
2936	3595
2936	4188
2937	3106
2937	3575
2938	3747
2938	3908
2938	4364
2938	4600
2939	4200
2939	4214
2939	4345
2939	4532
2939	4754
2939	4868
2940	3769
2940	4054
2940	4077
2940	4645
2941	3070
2941	3470
2941	3818
2941	4224
2941	4313
2941	4916
2941	4934
2942	2973
2942	3337
2942	3633
2942	4181
2942	4306
2942	4490
2942	4778
2943	3606
2943	4214
2943	4339
2943	4529
2943	4616
2943	4947
2944	3297
2944	3305
2944	3362
2944	4302
2944	4479
2945	3268
2945	3363
2945	3719
2945	4106
2945	4487
2945	4751
2946	3166
2946	3736
2947	3306
2947	4005
2948	3114
2948	3159
2948	3577
2948	4861
2948	4911
2949	3137
2949	3505
2949	3965
2949	4153
2950	2986
2950	3178
2950	3549
2950	3578
2950	4337
2950	4850
2951	3649
2951	4015
2951	4134
2951	4557
2951	4942
2952	3795
2952	4348
2952	4412
2952	4764
2953	3044
2953	3091
2953	3716
2953	3817
2953	3837
2953	4327
2953	4372
2953	4829
2953	4852
2954	4356
2955	3461
2955	3580
2955	3626
2955	4456
2955	4873
2956	2966
2956	3368
2956	3758
2956	4070
2956	4220
2956	4402
2956	4577
2956	4915
2956	4985
2957	3452
2957	3888
2957	4746
2958	3186
2958	3352
2958	3539
2958	3894
2958	3954
2958	3960
2958	4259
2958	4447
2958	4879
2959	3730
2959	3771
2959	3995
2959	4259
2959	4462
2960	3169
2960	3890
2960	4014
2960	4083
2960	4260
2961	3012
2961	3181
2961	3240
2961	4293
2961	4467
2962	3249
2962	3625
2962	4590
2963	3813
2963	4310
2963	4833
2963	4971
2964	3214
2964	3671
2964	3787
2964	4304
2964	4464
2964	4617
2965	3225
2965	3229
2965	3812
2965	3981
2965	4559
2966	3480
2966	3660
2967	2989
2967	3337
2967	3997
2967	4054
2967	4896
2968	4740
2969	3407
2969	3609
2969	3767
2969	4996
2970	3046
2970	3214
2970	3796
2970	3908
2970	4162
2970	4555
2971	4150
2972	3060
2972	4166
2972	4330
2972	4678
2973	3136
2973	3369
2973	4131
2973	4274
2973	4468
2973	4753
2974	3182
2974	3187
2974	3990
2974	4201
2974	4307
2974	4418
2974	4509
2975	3281
2975	3378
2975	3550
2975	4060
2975	4594
2975	4919
2975	4927
2976	3130
2976	3233
2976	3512
2976	4166
2976	4996
2977	3639
2977	4137
2977	4618
2978	3172
2978	3641
2978	3918
2978	4145
2978	4922
2979	3589
2979	3612
2979	4316
2979	4318
2979	4864
2979	4955
2980	3267
2980	3575
2980	3599
2980	3828
2980	4032
2980	4392
2980	4807
2981	3074
2981	3362
2981	3647
2981	4233
2981	4398
2981	4916
2982	4027
2982	4553
2983	4343
2983	4597
2983	4736
2983	4781
2984	3948
2984	4251
2984	4442
2985	2986
2985	3160
2985	3290
2985	3475
2985	3731
2985	4305
2986	2989
2986	4243
2986	4904
2987	3282
2987	3468
2987	3830
2987	4816
2988	3349
2989	3986
2989	4468
2989	4722
2989	4771
2990	3425
2990	3625
2990	3760
2990	3837
2990	3892
2990	4571
2990	4772
2991	3465
2991	3825
2991	3987
2991	4484
2992	4221
2992	4307
2992	4767
2993	3050
2993	3320
2993	4352
2994	3201
2994	3414
2994	3827
2994	3836
2994	4028
2994	4145
2994	4971
2995	3334
2995	3378
2995	3910
2995	4167
2995	4230
2995	4526
2995	4532
2996	3244
2996	4252
2996	4341
2996	4390
2996	4559
2996	4654
2996	4980
2998	3883
2998	4390
2999	3447
2999	3506
2999	3990
2999	4133
2999	4276
2999	4553
2999	4574
3000	3870
3000	4125
3000	4968
3001	3393
3001	3513
3001	3608
3001	3918
3001	4006
3001	4370
3002	3095
3002	3410
3002	3736
3002	4238
3003	3123
3003	4508
3003	4908
3004	3280
3004	4711
3004	4925
3005	3138
3005	3394
3005	3823
3006	3015
3006	3182
3006	3347
3006	3869
3006	4174
3006	4722
3007	4774
3008	3076
3008	3140
3008	3145
3008	3427
3008	3687
3008	3726
3008	3743
3008	3787
3008	3937
3008	4231
3008	4395
3008	4422
3008	4579
3008	4617
3009	3221
3009	3481
3009	3665
3009	3769
3010	3052
3010	3259
3010	3525
3010	3597
3010	3638
3010	3746
3010	4658
3010	4739
3010	4886
3010	4930
3010	4989
3011	3358
3011	4783
3011	4953
3012	3301
3012	4832
3013	4970
3014	3370
3014	3468
3014	3629
3014	3670
3014	3756
3014	4196
3014	4758
3014	4902
3015	3224
3015	3513
3015	4632
3016	3156
3016	3790
3016	4209
3016	4660
3016	4800
3017	3078
3017	3665
3017	4064
3017	4136
3017	4300
3017	4780
3017	4977
3018	3073
3018	3198
3018	4267
3019	3212
3019	3554
3019	3786
3019	4004
3019	4141
3019	4260
3019	4834
3020	3162
3020	3339
3020	3662
3020	3705
3020	3759
3020	3822
3020	4011
3020	4545
3021	3134
3021	4961
3022	3314
3022	3485
3022	3711
3022	3743
3022	4132
3022	4723
3023	3097
3023	3106
3023	3720
3023	4334
3023	4379
3023	4983
3024	4374
3024	4480
3025	3405
3025	3410
3025	3920
3025	4429
3025	4961
3026	4259
3026	4621
3027	3739
3027	3806
3027	4089
3027	4269
3027	4855
3028	3303
3028	3461
3028	3943
3028	4049
3029	3402
3029	4416
3030	3222
3030	3661
3030	3963
3030	4269
3031	3091
3031	3435
3031	3741
3031	3773
3031	4075
3031	4334
3031	4752
3032	3306
3032	4192
3032	4286
3033	3214
3033	3480
3033	3572
3033	3592
3033	3746
3033	3750
3033	4098
3033	4170
3033	4208
3033	4267
3033	4665
3033	4707
3033	4944
3034	3064
3034	3075
3034	3977
3034	4024
3034	4320
3034	4575
3035	3826
3035	3857
3035	3968
3035	4142
3035	4317
3035	4717
3035	4781
3035	4871
3036	3204
3036	3530
3036	3796
3036	3982
3036	4186
3036	4614
3036	4701
3037	3168
3037	3723
3037	3831
3037	4033
3037	4101
3037	4141
3037	4606
3037	4980
3038	3454
3038	3553
3038	3742
3039	3254
3039	3342
3039	4263
3039	4278
3039	4313
3039	4458
3039	4643
3040	3079
3040	3678
3040	4315
3040	4532
3040	4584
3040	4726
3041	3275
3041	3430
3041	3497
3041	4443
3041	4444
3041	4509
3041	4771
3041	4978
3042	3537
3042	3944
3042	4343
3042	4581
3042	4700
3043	3194
3043	3273
3043	3583
3043	3783
3043	4355
3043	4586
3043	4899
3044	3528
3044	4545
3044	4910
3045	3201
3045	4181
3046	4308
3047	3378
3047	3648
3047	3982
3047	4550
3047	4882
3048	3129
3048	3488
3048	3618
3048	3839
3048	3919
3048	4107
3048	4265
3048	4390
3048	4533
3048	4681
3048	4722
3048	4732
3048	4756
3048	4883
3049	3253
3049	3857
3049	3917
3049	4025
3049	4407
3050	3211
3050	3218
3050	3746
3050	4001
3051	3138
3051	3159
3051	3751
3051	4138
3051	4245
3051	4525
3051	4694
3052	3433
3052	4677
3053	3395
3053	3463
3053	3996
3053	4038
3053	4452
3054	3186
3054	3842
3055	3321
3055	3629
3055	3870
3055	4066
3055	4152
3055	4406
3055	4509
3055	4687
3056	4606
3056	4796
3057	4502
3057	4958
3058	3441
3058	3472
3059	3940
3059	4876
3059	4924
3060	3341
3060	3934
3060	4448
3061	3488
3061	3646
3061	3891
3061	3982
3061	4569
3061	4987
3062	4398
3063	3760
3063	3782
3063	4354
3063	4518
3063	4923
3064	3129
3064	3265
3064	3757
3065	3308
3065	4086
3065	4432
3066	4511
3066	4797
3067	3652
3067	4012
3067	4043
3067	4096
3067	4738
3067	4754
3068	3897
3068	4671
3069	3929
3069	4035
3070	3945
3070	3972
3070	4075
3070	4126
3070	4315
3070	4686
3070	4916
3071	4448
3071	4724
3071	4906
3071	4970
3072	3213
3072	4004
3072	4601
3072	4644
3072	4872
3073	4157
3073	4753
3073	4788
3074	3598
3074	4501
3074	4937
3075	3445
3075	4170
3075	4575
3075	4850
3076	3946
3076	4018
3076	4122
3076	4265
3076	4283
3076	4809
3077	3098
3077	3148
3077	3840
3077	4133
3078	3205
3078	3538
3078	3874
3079	3325
3079	4930
3080	3140
3080	3220
3080	3380
3080	3390
3080	3433
3080	3642
3080	4087
3080	4413
3080	4498
3081	4323
3081	4677
3082	3396
3082	3916
3082	4031
3082	4446
3082	4631
3082	4832
3082	4992
3083	3324
3083	3397
3083	3773
3083	3859
3083	4309
3083	4612
3083	4896
3084	3621
3084	3692
3084	3755
3084	4092
3085	3495
3085	4110
3086	4891
3087	3638
3087	3680
3087	4369
3087	4570
3087	4891
3088	3091
3088	3755
3088	3903
3088	4301
3089	3232
3089	3254
3089	3271
3089	3752
3089	3917
3089	4237
3089	4657
3090	3672
3090	4289
3090	4553
3091	3247
3091	3302
3091	3776
3091	4274
3092	3662
3092	3775
3092	4527
3092	4718
3092	4719
3093	3319
3093	4240
3094	3582
3094	3786
3094	4347
3094	4668
3094	4940
3095	3869
3095	4016
3095	4836
3095	4989
3096	3813
3096	3979
3098	3181
3098	3300
3098	4120
3099	3556
3099	3568
3099	3954
3099	4048
3099	4238
3099	4271
3099	4350
3100	3981
3101	3611
3101	4170
3101	4370
3102	3463
3102	3658
3102	4361
3102	4923
3103	4993
3104	3130
3104	3780
3104	4072
3104	4373
3105	3149
3105	3387
3105	3480
3105	3583
3105	4306
3105	4450
3105	4916
3106	3900
3106	3976
3106	4020
3107	4086
3107	4654
3108	4718
3109	3757
3109	4293
3110	3173
3110	3462
3110	4990
3111	4074
3112	3825
3112	4255
3112	4565
3112	4985
3113	3883
3113	4248
3113	4269
3114	3461
3114	3653
3114	4143
3115	3117
3115	3120
3115	3373
3115	4033
3115	4064
3115	4115
3115	4846
3116	3189
3116	4019
3116	4328
3117	3219
3117	3324
3117	4556
3117	4696
3117	4776
3118	3507
3118	3949
3118	4143
3119	3303
3119	4559
3119	4581
3119	4893
3120	3675
3120	4237
3121	4474
3121	4658
3121	4972
3122	3842
3122	3997
3122	4180
3122	4232
3122	4381
3122	4396
3122	4404
3123	3238
3123	3242
3123	3521
3123	4070
3123	4441
3123	4579
3124	3962
3126	3203
3126	4093
3126	4276
3126	4434
3126	4901
3127	3161
3127	3218
3127	3237
3127	3818
3127	3866
3127	4272
3127	4288
3127	4756
3127	4922
3128	3139
3128	3245
3128	4278
3129	4005
3129	4212
3129	4297
3129	4551
3129	4924
3130	3253
3130	3348
3130	3531
3131	3150
3131	3182
3131	3378
3131	3678
3131	3693
3131	3807
3132	4577
3133	3144
3133	3184
3133	3596
3133	3934
3133	4758
3133	4773
3133	4831
3134	3573
3134	3796
3134	4196
3135	3168
3135	3270
3135	3444
3135	4457
3136	3522
3136	3759
3136	4493
3137	3194
3137	4207
3137	4748
3138	3560
3138	3880
3139	3994
3139	4044
3139	4542
3140	3224
3140	4628
3141	3737
3141	3983
3142	4024
3142	4554
3142	4574
3143	3471
3143	3850
3143	3922
3143	3971
3143	4054
3143	4137
3143	4348
3144	3617
3144	4367
3144	4435
3144	4733
3145	3613
3145	3695
3145	3958
3145	4251
3145	4396
3145	4569
3145	4834
3146	3944
3146	4090
3146	4185
3147	3449
3147	3579
3147	3770
3147	4325
3148	3565
3148	3809
3149	3864
3149	4048
3149	4134
3149	4934
3150	3515
3150	3868
3150	4174
3150	4499
3151	4312
3151	4345
3151	4667
3151	4998
3152	3600
3152	4059
3152	4160
3152	4431
3153	4514
3154	3247
3154	3426
3154	3563
3155	3182
3155	3704
3155	4017
3155	4536
3155	4683
3156	3186
3156	3980
3156	3988
3156	4377
3156	4893
3157	3199
3157	3434
3157	3487
3157	3584
3157	4113
3157	4201
3157	4473
3158	3415
3158	3477
3158	3530
3158	3784
3158	3794
3158	3908
3158	4010
3158	4572
3159	3178
3159	4497
3159	4648
3159	4809
3159	4936
3160	3846
3160	4405
3160	4548
3161	3571
3161	4601
3162	3654
3162	3667
3163	3198
3163	3219
3163	3254
3163	3288
3163	3978
3163	4198
3163	4774
3163	4970
3164	3728
3164	4552
3165	3579
3165	3950
3165	4360
3165	4527
3166	4337
3166	4517
3166	4547
3166	4970
3167	3411
3167	4242
3167	4518
3167	4879
3168	3493
3168	3978
3169	3819
3169	3950
3169	4457
3169	4684
3170	3244
3171	3640
3171	4096
3171	4318
3172	3291
3172	3386
3172	4142
3172	4681
3172	4718
3173	4098
3174	4236
3174	4625
3174	4906
3176	3402
3176	3580
3177	3488
3177	3656
3177	4179
3177	4189
3177	4886
3178	3221
3178	3226
3178	4050
3178	4196
3178	4387
3178	4461
3178	4526
3178	4781
3178	4856
3179	3222
3179	4098
3179	4445
3180	3899
3180	3949
3180	4013
3180	4314
3180	4563
3181	3555
3181	3789
3181	3825
3182	3305
3182	3310
3182	3717
3183	4591
3184	4110
3185	4078
3186	3280
3186	3491
3186	3745
3186	3776
3187	3277
3187	3734
3187	3764
3187	4718
3188	3427
3188	3846
3188	3995
3188	4290
3188	4638
3189	3998
3189	4507
3190	3549
3190	3631
3190	4526
3190	4820
3191	3554
3191	3635
3191	4251
3191	4851
3191	4890
3192	4566
3193	3951
3194	3217
3194	4317
3194	4865
3195	3742
3195	4609
3195	4713
3195	4926
3196	3432
3196	3592
3196	3616
3196	3807
3196	3849
3196	3990
3196	4199
3196	4699
3197	4707
3197	4788
3198	3379
3198	4253
3198	4502
3198	4885
3199	3497
3199	3666
3199	3729
3199	3916
3199	4232
3200	3423
3200	3434
3200	3750
3200	3871
3200	4975
3201	3295
3201	3302
3201	3436
3201	3876
3201	4156
3201	4962
3202	3325
3202	4022
3202	4262
3202	4420
3202	4879
3202	4952
3203	3282
3204	4156
3204	4340
3204	4669
3205	3335
3205	4297
3205	4865
3207	4835
3208	3478
3208	4233
3208	4282
3209	3831
3209	4274
3210	3583
3210	3848
3210	4390
3210	4765
3210	4853
3210	4862
3210	4877
3210	4921
3210	4924
3211	3414
3212	3632
3212	4054
3212	4255
3212	4509
3213	4544
3214	4361
3214	4615
3215	3461
3215	3656
3215	4252
3216	4108
3217	4225
3217	4737
3218	3343
3218	3826
3218	4182
3219	4027
3219	4147
3220	3457
3220	3463
3220	3543
3220	3591
3220	4151
3220	4455
3220	4679
3221	3557
3221	3719
3221	4327
3221	4960
3223	3720
3223	3959
3223	4547
3223	4617
3223	4744
3224	3655
3224	4184
3225	3847
3225	4866
3226	3317
3226	3477
3226	3830
3226	3871
3226	4059
3227	3261
3227	3464
3227	4015
3227	4123
3227	4381
3227	4764
3227	4801
3228	4254
3228	4576
3229	3386
3229	3687
3229	3735
3229	4398
3230	3939
3230	3972
3230	4168
3230	4254
3230	4490
3230	4626
3231	3553
3231	4412
3232	3365
3232	3840
3232	3971
3232	4201
3232	4686
3233	3786
3233	4825
3234	3470
3235	3506
3235	3998
3235	4433
3235	4590
3236	3315
3236	3812
3236	3829
3236	3867
3236	4246
3236	4541
3236	4980
3237	3351
3237	3719
3237	3998
3238	3304
3238	4039
3238	4117
3239	3739
3239	4725
3239	4801
3239	4805
3240	3842
3240	4535
3240	4545
3240	4733
3240	4828
3240	4841
3241	3334
3241	4257
3242	3326
3242	3498
3242	3580
3242	3584
3242	3652
3243	3816
3243	3964
3243	3993
3243	4167
3243	4747
3244	3410
3244	3537
3244	4300
3244	4384
3244	4645
3245	3295
3245	3844
3245	4739
3245	4973
3246	3402
3246	3566
3246	4014
3246	4493
3247	3988
3248	3848
3249	3302
3249	3419
3249	3641
3249	4291
3250	3417
3250	4095
3250	4247
3251	3629
3251	4186
3251	4418
3252	3381
3252	3401
3252	3986
3252	4145
3252	4407
3252	4677
3253	3758
3253	3976
3253	4214
3253	4436
3253	4492
3254	3288
3256	4036
3257	3652
3258	3376
3258	3592
3258	3779
3258	4025
3258	4923
3259	4201
3260	3695
3260	3711
3260	4996
3261	3778
3261	3988
3262	3589
3262	3784
3262	4269
3262	4553
3262	4592
3263	3427
3263	3539
3263	3647
3263	3758
3263	3944
3263	3947
3263	4143
3263	4212
3263	4261
3263	4443
3263	4655
3264	3284
3264	3323
3264	3769
3265	3641
3265	4486
3266	3799
3266	4214
3266	4299
3266	4490
3266	4639
3267	3672
3267	3952
3267	4631
3267	4900
3268	3714
3268	4322
3269	4458
3269	4524
3270	3403
3270	3875
3270	3930
3270	4270
3270	4518
3272	3331
3272	4050
3272	4365
3272	4389
3272	4743
3272	4852
3273	3448
3273	3476
3273	3537
3273	3789
3273	3975
3273	4633
3273	4918
3274	3619
3274	4409
3274	4561
3274	4751
3274	4919
3275	3460
3275	3494
3275	3766
3275	3771
3275	3990
3275	4995
3276	3501
3276	4063
3276	4693
3276	4734
3276	4864
3277	4097
3277	4202
3277	4468
3277	4504
3277	4963
3279	3658
3279	4510
3279	4619
3279	4632
3280	3290
3280	3433
3280	3998
3280	4939
3280	4983
3281	3366
3281	3394
3281	3554
3281	3662
3281	4159
3281	4661
3282	3815
3283	3449
3283	4319
3283	4645
3284	4725
3284	4957
3284	4972
3285	3531
3285	4902
3286	3894
3286	4034
3286	4194
3288	3475
3288	3483
3288	3729
3289	3470
3289	3574
3289	3592
3289	4159
3291	4154
3291	4518
3291	4791
3291	4895
3292	3346
3292	3669
3293	3991
3294	3566
3294	4327
3294	4940
3295	3627
3295	3924
3295	4301
3295	4405
3296	3840
3296	3953
3296	4235
3296	4475
3297	4010
3297	4346
3298	4035
3298	4114
3299	4614
3299	4636
3299	4749
3299	4842
3300	3391
3300	3456
3300	3702
3300	3956
3300	4233
3301	3620
3301	4247
3301	4341
3301	4441
3301	4518
3302	3345
3302	3926
3302	3941
3302	4413
3303	4069
3303	4219
3303	4435
3304	4218
3305	3988
3306	3313
3306	3864
3307	3813
3307	3831
3307	3972
3307	4594
3307	4696
3307	4766
3309	3538
3309	4344
3312	4684
3312	4692
3314	3521
3314	4328
3314	4430
3314	4542
3315	4058
3315	4061
3315	4063
3315	4598
3316	3657
3316	3899
3316	4275
3316	4945
3317	3330
3317	4084
3317	4268
3318	4103
3318	4490
3318	4942
3319	3848
3319	4116
3319	4378
3319	4763
3320	3405
3320	3495
3320	4109
3321	3415
3321	3497
3321	3748
3321	4368
3322	3373
3322	3375
3322	3496
3322	3659
3322	4150
3322	4292
3322	4810
3323	3368
3323	3753
3323	3837
3324	4216
3324	4665
3324	4683
3325	3507
3325	3683
3325	3776
3325	4385
3325	4496
3325	4506
3325	4672
3325	4910
3326	3908
3326	4034
3326	4883
3327	3818
3327	4922
3328	3332
3328	3821
3328	4102
3328	4364
3328	4468
3328	4651
3329	3700
3330	3540
3330	3970
3330	4364
3330	4368
3330	4523
3330	4704
3330	4777
3330	4995
3331	3447
3331	3773
3331	4351
3331	4537
3331	4937
3332	3915
3332	4487
3333	3539
3333	3610
3333	4554
3333	4695
3333	4732
3333	4822
3333	4831
3334	3646
3334	4884
3335	3497
3335	4179
3335	4219
3335	4374
3335	4800
3336	3967
3337	3371
3337	3594
3337	4220
3337	4443
3337	4531
3338	3450
3338	3529
3338	3621
3338	3869
3338	4589
3338	4623
3339	3850
3339	4313
3339	4327
3340	3391
3340	3717
3340	4116
3340	4767
3342	4033
3342	4083
3342	4987
3343	3827
3343	3840
3343	4080
3343	4320
3343	4561
3344	3403
3345	3387
3345	3480
3345	4036
3345	4365
3345	4528
3345	4537
3345	4649
3345	4914
3345	4982
3346	3672
3346	3717
3346	3881
3346	4005
3346	4044
3346	4322
3346	4418
3346	4774
3347	3357
3347	3577
3347	3650
3347	3696
3347	4222
3347	4358
3348	3596
3348	3796
3348	4208
3348	4335
3348	4451
3349	3711
3349	4156
3349	4728
3350	4382
3351	3423
3351	4708
3351	4820
3352	3561
3352	3871
3352	4174
3352	4250
3353	3415
3355	4091
3355	4856
3356	3861
3356	4370
3356	4470
3357	3930
3357	4067
3357	4589
3357	4605
3358	3961
3358	4438
3359	3426
3359	3798
3359	4577
3359	4628
3359	4883
3360	3501
3360	4015
3361	3394
3361	3788
3361	4336
3362	3444
3363	3588
3363	3996
3363	4895
3364	3856
3364	4464
3364	4514
3365	3613
3365	3659
3365	3830
3365	4587
3365	4667
3365	4808
3366	4086
3366	4310
3366	4401
3367	3448
3367	3847
3367	4835
3368	3867
3368	3972
3368	4246
3368	4450
3369	4396
3370	4199
3371	4054
3371	4573
3372	3541
3372	3694
3372	3878
3373	3617
3373	4122
3373	4283
3374	3597
3374	3825
3374	4877
3375	3853
3375	4108
3375	4136
3375	4409
3375	4908
3376	4091
3376	4431
3376	4624
3376	4783
3376	4870
3377	3936
3377	4329
3378	3674
3378	4529
3378	4784
3379	3424
3379	3957
3379	4259
3379	4322
3379	4768
3380	3445
3380	3512
3380	3922
3380	4305
3380	4541
3381	3590
3381	4476
3382	3471
3382	4007
3383	4131
3384	3654
3384	3809
3384	3820
3384	3905
3384	4412
3385	3945
3385	3967
3385	4082
3386	3397
3386	3532
3386	3723
3386	3858
3386	4522
3386	4543
3386	4645
3386	4893
3388	3590
3388	4688
3388	4835
3390	3419
3390	3448
3390	3757
3390	4016
3391	3827
3391	4740
3392	4457
3392	4964
3393	4427
3394	3564
3394	3585
3394	3870
3394	4623
3395	4207
3395	4316
3395	4559
3395	4961
3396	3480
3396	3603
3396	3749
3396	3968
3396	4630
3396	4672
3397	3513
3397	3533
3397	4093
3398	4030
3399	3529
3399	3608
3399	3807
3399	4936
3400	3923
3400	4163
3400	4241
3400	4459
3400	4842
3401	4277
3401	4414
3401	4432
3401	4520
3401	4582
3402	3659
3402	4336
3402	4655
3403	3485
3404	3444
3404	3854
3404	3888
3404	4021
3404	4028
3404	4327
3404	4500
3405	3622
3405	4136
3405	4682
3406	3750
3406	4368
3406	4671
3406	4679
3406	4793
3407	4347
3407	4615
3408	4399
3408	4897
3410	3498
3412	3628
3412	3796
3412	3800
3412	4236
3412	4359
3412	4623
3412	4652
3412	4664
3412	4789
3412	4926
3413	3465
3413	3958
3413	4056
3413	4398
3413	4610
3415	4982
3416	3901
3416	4575
3417	3771
3417	3858
3418	3422
3418	3836
3418	4083
3418	4260
3418	4501
3419	4003
3420	3674
3420	3785
3420	4037
3420	4081
3420	4616
3420	4866
3421	3434
3421	4169
3421	4397
3421	4586
3421	4920
3422	3673
3422	4740
3422	4937
3423	3727
3424	3495
3424	3917
3424	4221
3424	4610
3424	4649
3425	4240
3425	4902
3426	3467
3426	4172
3427	3449
3427	3751
3427	3919
3427	4359
3428	3675
3428	3776
3428	3885
3428	3943
3428	4240
3429	3694
3429	4928
3430	3737
3430	3961
3430	4081
3430	4282
3430	4526
3430	4622
3431	3674
3431	4094
3431	4234
3431	4714
3432	3819
3432	4334
3432	4361
3432	4511
3434	3856
3434	4517
3434	4938
3435	3611
3435	3701
3435	4594
3435	4824
3435	4871
3436	3570
3436	3911
3437	3438
3437	3506
3437	3592
3437	3620
3437	4362
3437	4838
3438	4189
3438	4703
3438	4792
3439	4815
3439	4842
3440	3527
3440	4048
3441	3483
3441	3707
3441	4115
3441	4485
3441	4669
3442	3533
3442	3580
3442	3700
3442	4698
3442	4891
3443	3918
3443	4354
3443	4650
3443	4770
3443	4795
3444	4476
3444	4517
3445	3702
3445	3828
3445	4371
3446	4722
3447	3499
3447	4710
3448	3605
3448	3898
3448	3993
3448	4119
3448	4943
3449	3493
3449	3550
3449	4127
3450	3643
3450	3978
3450	4452
3450	4611
3450	4796
3451	4402
3451	4639
3452	3505
3452	4382
3452	4786
3453	3584
3453	3677
3453	3740
3453	4482
3453	4540
3455	3782
3455	3852
3456	3984
3456	4139
3456	4246
3456	4385
3456	4698
3456	4921
3456	4930
3457	3465
3458	3563
3458	4173
3458	4354
3458	4636
3458	4871
3459	3482
3461	4637
3462	3962
3462	4473
3463	3580
3463	4288
3463	4685
3463	4887
3464	3638
3464	3877
3464	4214
3465	3538
3465	3803
3465	4298
3465	4622
3466	3521
3466	4078
3466	4160
3466	4205
3466	4616
3467	3615
3467	3674
3467	4286
3467	4779
3467	4873
3468	3622
3469	3766
3469	3820
3469	3844
3469	4139
3470	3501
3471	3597
3471	3732
3471	4014
3471	4188
3472	4026
3472	4515
3473	3652
3473	3717
3473	4050
3473	4116
3473	4899
3473	4999
3475	3515
3475	3633
3475	3663
3475	3774
3475	4499
3475	4994
3476	3764
3476	4024
3478	3748
3478	4134
3478	4485
3479	3603
3479	4248
3479	4513
3480	3610
3480	4264
3480	4791
3481	3608
3481	3733
3481	3830
3481	3916
3481	4433
3481	4456
3481	4503
3481	4923
3482	4064
3482	4584
3482	4864
3483	4251
3483	4437
3484	3593
3484	4801
3484	4860
3484	4943
3485	3767
3485	3835
3485	4131
3485	4604
3485	4693
3486	3833
3486	4075
3486	4298
3486	4847
3487	3997
3488	3525
3488	3585
3488	3816
3488	4745
3488	4921
3489	3691
3490	3510
3490	3798
3491	3633
3491	3894
3492	3866
3492	3991
3492	4952
3493	3617
3493	4057
3493	4216
3493	4704
3494	4418
3495	3826
3495	4588
3495	4700
3496	4479
3497	3545
3497	4496
3497	4826
3499	3514
3499	4082
3500	3792
3500	4773
3501	3661
3501	4527
3502	3552
3502	3881
3502	3911
3503	3722
3503	3876
3503	4317
3503	4651
3504	3668
3504	4248
3506	3509
3506	4709
3507	3570
3507	3799
3507	4132
3507	4235
3507	4417
3507	4867
3509	3972
3509	4287
3509	4793
3509	4856
3510	4921
3510	4999
3511	4201
3511	4572
3511	4720
3511	4820
3512	4019
3512	4445
3513	3519
3513	4258
3513	4278
3513	4302
3514	3529
3514	3662
3514	3676
3514	3723
3514	3753
3514	4087
3514	4771
3515	4369
3515	4425
3516	3806
3516	3856
3516	4745
3517	3604
3517	3620
3517	3990
3517	4067
3517	4230
3518	3778
3518	4154
3518	4210
3518	4690
3518	4866
3519	3532
3519	3674
3519	3890
3519	3914
3519	4045
3519	4252
3519	4282
3519	4925
3520	3698
3520	4304
3521	3604
3521	3795
3521	4226
3522	3801
3522	3842
3522	3965
3522	3990
3522	4900
3523	3623
3523	4091
3523	4368
3523	4570
3523	4700
3523	4720
3523	4857
3524	3601
3524	3636
3525	4112
3526	4142
3527	4510
3527	4934
3529	3772
3529	4230
3529	4466
3530	3760
3530	3830
3530	3950
3530	4050
3530	4110
3530	4290
3530	4755
3531	3854
3531	4217
3532	3937
3532	4566
3533	3637
3534	3848
3534	3883
3534	4004
3534	4036
3534	4304
3534	4932
3535	3581
3535	4595
3535	4669
3535	4683
3535	4800
3535	4918
3536	3616
3536	3815
3537	3846
3537	4149
3537	4695
3537	4850
3538	3600
3538	4209
3538	4944
3539	4281
3540	3887
3541	3559
3541	3832
3541	3864
3541	4060
3541	4079
3541	4189
3541	4308
3541	4410
3541	4521
3541	4705
3541	4761
3541	4968
3541	4998
3542	3887
3542	4462
3542	4613
3542	4755
3543	4279
3543	4787
3544	4589
3544	4631
3544	4929
3545	4411
3546	3738
3546	4052
3546	4499
3546	4669
3546	4890
3547	3600
3547	3986
3547	4685
3548	3661
3548	3864
3548	3919
3548	4756
3549	3785
3550	3611
3550	3718
3550	4862
3552	4675
3553	3796
3553	3846
3554	3634
3554	3689
3554	4565
3556	3727
3557	3944
3557	4903
3558	3633
3558	3861
3559	4017
3559	4396
3559	4500
3559	4807
3560	3738
3560	3950
3560	4027
3560	4228
3560	4735
3562	3762
3562	4469
3563	4858
3564	3853
3564	3983
3564	4180
3564	4585
3564	4774
3565	4045
3565	4525
3565	4581
3566	4992
3568	3987
3568	4150
3568	4242
3568	4526
3569	3830
3569	4226
3569	4349
3569	4562
3569	4786
3571	4367
3571	4400
3571	4428
3572	4058
3572	4136
3572	4358
3573	4173
3573	4881
3574	3698
3574	4240
3574	4836
3576	4640
3577	4707
3578	3872
3578	3966
3578	4550
3578	4572
3578	4893
3579	3685
3580	4684
3581	3605
3581	3870
3581	4613
3582	3713
3582	4926
3583	4514
3583	4564
3584	4337
3585	3603
3585	4839
3586	4218
3586	4321
3586	4787
3587	4501
3587	4890
3588	3916
3588	3934
3588	4061
3589	3812
3589	3979
3589	4992
3590	4072
3590	4082
3590	4773
3591	3855
3591	4404
3591	4809
3591	4870
3591	4941
3592	4140
3592	4235
3592	4334
3593	4181
3593	4783
3594	3889
3594	4207
3595	4457
3595	4641
3595	4898
3596	4144
3596	4380
3596	4613
3597	3904
3597	3923
3597	4313
3599	4379
3599	4808
3600	4115
3600	4270
3603	3895
3603	3902
3604	3605
3604	3946
3604	4888
3605	4600
3606	3813
3606	4624
3606	4790
3607	4479
3608	3833
3608	4446
3608	4752
3608	4765
3608	4835
3609	3803
3609	4455
3609	4601
3609	4918
3610	4089
3610	4276
3610	4462
3610	4678
3610	4697
3610	4739
3610	4884
3610	4950
3610	4995
3611	4040
3611	4232
3612	4376
3612	4391
3612	4672
3613	4940
3614	4570
3615	3981
3615	4128
3615	4709
3617	3850
3618	3732
3619	3800
3620	4182
3620	4380
3621	3766
3621	3814
3621	4548
3622	3987
3622	4039
3622	4183
3623	4264
3623	4623
3624	4878
3625	3657
3625	3811
3625	4044
3625	4710
3625	4924
3626	3964
3626	4003
3626	4104
3626	4105
3626	4127
3626	4460
3626	4499
3627	3639
3627	4116
3628	4962
3629	3814
3629	3993
3629	4941
3630	3749
3630	3891
3630	4417
3630	4611
3630	4945
3631	4231
3631	4523
3632	3771
3633	3889
3633	3913
3633	4073
3633	4987
3634	4139
3635	3866
3635	4335
3635	4567
3635	4836
3636	3807
3636	3858
3636	4079
3636	4293
3636	4358
3637	4371
3637	4489
3637	4577
3638	3659
3638	3815
3638	4033
3638	4761
3639	3864
3640	3934
3640	4762
3641	4390
3641	4428
3641	4526
3641	4708
3641	4959
3642	3694
3642	3829
3642	4203
3643	4366
3644	4432
3645	4074
3645	4858
3645	4919
3646	4265
3647	3751
3647	3862
3647	4032
3647	4431
3647	4577
3647	4853
3648	3846
3648	4173
3648	4330
3648	4849
3649	4302
3650	4980
3651	3996
3651	4113
3651	4189
3651	4798
3651	4842
3652	3674
3652	3761
3652	3831
3652	4321
3652	4984
3653	3717
3653	3758
3653	4166
3653	4283
3653	4621
3653	4744
3654	3892
3654	4521
3654	4615
3654	4962
3655	4651
3655	4734
3655	4758
3656	3688
3656	4038
3657	3891
3657	4673
3658	3764
3658	3882
3659	4301
3660	3738
3660	4432
3661	4017
3662	3690
3662	4351
3662	4701
3662	4902
3663	4478
3663	4703
3665	4619
3667	3707
3667	4352
3668	4469
3668	4870
3669	4202
3670	3713
3670	3844
3670	3945
3672	3939
3672	4427
3672	4630
3672	4637
3672	4751
3673	4580
3673	4589
3673	4669
3673	4798
3674	3920
3675	4271
3675	4424
3676	3770
3676	3964
3677	3850
3677	3901
3677	3989
3677	4800
3678	4845
3679	3961
3679	4356
3679	4631
3679	4914
3680	4758
3681	3717
3681	4001
3681	4334
3682	3975
3682	4198
3682	4485
3683	4533
3684	3862
3684	3942
3684	4004
3684	4554
3684	4622
3685	4306
3685	4455
3685	4503
3686	4148
3687	4224
3688	3959
3688	4636
3689	3996
3690	3994
3692	4457
3693	4461
3693	4471
3693	4754
3695	4125
3695	4812
3696	3855
3696	4027
3696	4285
3696	4381
3697	3857
3698	4470
3698	4492
3699	4134
3699	4173
3699	4341
3699	4769
3700	4470
3700	4928
3701	4242
3701	4493
3701	4731
3701	4813
3703	4212
3704	4143
3704	4681
3705	4095
3705	4867
3706	4181
3706	4326
3706	4588
3706	4703
3707	3906
3707	4520
3708	4272
3708	4558
3708	4941
3709	3806
3709	3955
3709	4055
3709	4272
3709	4658
3710	3940
3710	4293
3711	4010
3711	4464
3711	4740
3711	4894
3713	4355
3714	3816
3714	4550
3715	3899
3715	4045
3715	4726
3716	3761
3716	4054
3716	4090
3716	4489
3716	4556
3717	4060
3717	4248
3718	3964
3718	4464
3718	4704
3719	3766
3719	4493
3720	4485
3720	4923
3721	4166
3721	4696
3722	3853
3722	4695
3723	3902
3724	3823
3724	4109
3724	4448
3725	4012
3725	4050
3725	4668
3725	4851
3726	4346
3727	3880
3727	4052
3727	4222
3728	3807
3728	4728
3729	4072
3729	4130
3729	4226
3730	4137
3730	4794
3731	4180
3731	4302
3732	4296
3732	4357
3732	4537
3733	4527
3734	4050
3734	4652
3735	4250
3735	4865
3736	4371
3736	4535
3738	4656
3739	3964
3739	4430
3739	4693
3740	3930
3740	4736
3741	4339
3742	3766
3742	3948
3743	4042
3743	4463
3743	4543
3743	4786
3744	4378
3745	3829
3745	4462
3745	4806
3746	3978
3746	4086
3747	4408
3749	4352
3749	4662
3750	4362
3750	4453
3750	4674
3751	4107
3751	4716
3751	4959
3752	3931
3752	3992
3752	4317
3753	4467
3753	4515
3753	4528
3753	4599
3755	4044
3756	4406
3756	4518
3756	4526
3757	4374
3757	4430
3759	4494
3760	3843
3760	4215
3760	4661
3761	4352
3761	4604
3761	4726
3761	4994
3762	4251
3762	4830
3764	3909
3764	4719
3765	3803
3765	3869
3765	4132
3765	4662
3765	4713
3766	3899
3766	3921
3767	4335
3768	4389
3768	4495
3768	4670
3769	4114
3769	4472
3770	4040
3770	4155
3770	4276
3770	4970
3773	4643
3774	4802
3775	3933
3777	4025
3777	4280
3777	4746
3777	4940
3778	4017
3778	4220
3780	4530
3781	4847
3782	4731
3783	4175
3783	4224
3783	4416
3783	4811
3784	4224
3784	4562
3785	3897
3786	4601
3786	4789
3787	3815
3787	3959
3787	4019
3787	4028
3787	4718
3787	4896
3788	4115
3788	4341
3788	4439
3789	4535
3789	4685
3790	4111
3790	4132
3790	4579
3791	4121
3792	4578
3792	4965
3793	4939
3794	4239
3794	4554
3795	3962
3795	4257
3795	4621
3795	4950
3796	3856
3796	4086
3796	4369
3796	4518
3796	4564
3796	4721
3797	3841
3797	4065
3798	3935
3800	4208
3800	4297
3800	4448
3800	4568
3800	4582
3802	4486
3802	4586
3802	4882
3803	3879
3803	4071
3803	4097
3803	4527
3803	4561
3804	3964
3804	4136
3804	4496
3804	4504
3804	4602
3804	4696
3804	4951
3805	4633
3805	4979
3806	4498
3806	4511
3807	4763
3808	4427
3809	4682
3810	3897
3810	3912
3811	4564
3812	4122
3812	4159
3812	4748
3812	4759
3812	4941
3813	3817
3813	3989
3813	4752
3813	4820
3813	4892
3814	4508
3815	3847
3816	4122
3816	4246
3816	4305
3817	4077
3817	4206
3817	4345
3817	4369
3818	4088
3818	4574
3819	4039
3820	4757
3821	4338
3821	4550
3823	4486
3824	4103
3825	4509
3826	3951
3826	4804
3827	3886
3828	4090
3829	3900
3829	4625
3830	4644
3830	4837
3831	4052
3831	4782
3831	4822
3832	4027
3832	4087
3832	4507
3833	4231
3833	4246
3833	4279
3833	4427
3833	4560
3833	4879
3834	3958
3834	3991
3834	4473
3835	3982
3835	4039
3835	4188
3835	4478
3835	4897
3836	3931
3836	4145
3837	4166
3837	4628
3837	4935
3838	4397
3838	4593
3840	3924
3840	4499
3840	4992
3841	3950
3841	4250
3841	4819
3841	4960
3842	4196
3843	4086
3843	4113
3844	4224
3845	3926
3845	4053
3845	4368
3845	4493
3845	4901
3845	4943
3846	3852
3846	4270
3846	4538
3846	4874
3847	3953
3847	4701
3848	3980
3849	4176
3849	4614
3849	4640
3849	4664
3850	3893
3850	4022
3850	4566
3850	4637
3851	4127
3851	4411
3851	4412
3852	4436
3852	4721
3852	4835
3852	4957
3853	3896
3853	4144
3853	4374
3853	4533
3853	4737
3854	4338
3855	4461
3858	4574
3858	4751
3859	3887
3859	4047
3859	4964
3861	4404
3861	4453
3862	4368
3862	4499
3862	4832
3862	4836
3863	4753
3864	4558
3865	4321
3865	4401
3865	4778
3866	4028
3866	4049
3866	4513
3868	3903
3868	4277
3868	4598
3868	4828
3869	4246
3870	4042
3870	4964
3871	4306
3872	3957
3872	4779
3873	4095
3873	4639
3873	4736
3873	4747
3874	4133
3874	4486
3874	4854
3875	3953
3875	4165
3876	4214
3876	4769
3877	4146
3877	4300
3877	4734
3878	4173
3878	4296
3878	4740
3879	3883
3879	4303
3879	4321
3880	3983
3880	4149
3880	4781
3881	4417
3881	4688
3882	3913
3882	4065
3882	4425
3882	4564
3883	4085
3884	4647
3884	4795
3884	4905
3885	4081
3885	4477
3885	4523
3886	4355
3887	4025
3887	4357
3887	4971
3888	3891
3888	3949
3888	4046
3888	4610
3889	4338
3889	4351
3890	4493
3890	4726
3890	4995
3891	4249
3891	4305
3892	4752
3893	4932
3893	4987
3894	4030
3895	4005
3896	3987
3896	4479
3897	4201
3897	4270
3897	4378
3897	4471
3897	4767
3897	4913
3898	4181
3898	4268
3898	4560
3898	4916
3899	4388
3900	3923
3900	4816
3901	3996
3901	4392
3901	4630
3901	4974
3902	4092
3902	4127
3902	4446
3902	4640
3903	4219
3903	4577
3904	4794
3905	4203
3905	4325
3905	4438
3905	4877
3906	4024
3906	4862
3907	4154
3908	4356
3908	4531
3910	4296
3910	4466
3911	4048
3911	4193
3911	4915
3912	3991
3912	4059
3912	4422
3913	3991
3914	4134
3914	4719
3917	3998
3917	4648
3917	4793
3917	4824
3917	4886
3918	4698
3919	4344
3919	4581
3919	4860
3920	4532
3920	4668
3920	4746
3921	4021
3921	4796
3922	4510
3923	4673
3924	3954
3924	4129
3924	4416
3924	4496
3924	4532
3924	4746
3924	4758
3926	4928
3927	4995
3928	4047
3929	4186
3929	4928
3931	4243
3932	4012
3932	4409
3932	4787
3933	4319
3933	4435
3933	4638
3933	4869
3934	4093
3934	4219
3934	4486
3934	4726
3934	4855
3936	4052
3936	4340
3936	4633
3936	4680
3936	4698
3936	4704
3936	4952
3937	4409
3938	4338
3939	4036
3940	4090
3941	4296
3941	4842
3941	4894
3942	4111
3942	4498
3943	4426
3944	4258
3944	4974
3945	4117
3945	4751
3946	4346
3947	4036
3947	4894
3947	4994
3948	4429
3950	4929
3951	4127
3951	4660
3951	4741
3951	4942
3953	4454
3953	4810
3954	4106
3955	4634
3958	4177
3958	4352
3958	4766
3959	4051
3959	4293
3959	4535
3961	4768
3961	4904
3962	4156
3962	4187
3962	4307
3962	4590
3963	4019
3963	4404
3963	4689
3964	4055
3964	4655
3964	4880
3965	4944
3966	4195
3966	4570
3967	4088
3967	4239
3967	4646
3968	4078
3968	4818
3969	4063
3969	4159
3969	4863
3969	4968
3971	3984
3971	3996
3971	4153
3971	4851
3972	4096
3972	4853
3973	4324
3974	4649
3974	4760
3975	4825
3976	4243
3976	4512
3976	4804
3977	4200
3978	4010
3978	4041
3978	4632
3979	4372
3979	4392
3981	4865
3982	4353
3982	4525
3982	4550
3982	4552
3982	4560
3982	4775
3982	4928
3983	4167
3985	4445
3985	4994
3986	4320
3986	4823
3986	4941
3987	4820
3987	4825
3989	4174
3989	4285
3989	4329
3989	4558
3989	4906
3990	4124
3990	4234
3990	4560
3990	4690
3991	4289
3992	4199
3992	4602
3993	4284
3993	4388
3994	4887
3995	4348
3995	4520
3995	4956
3996	4541
3996	4811
3997	4465
3997	4713
3997	4875
3999	4067
4000	4944
4001	4194
4001	4206
4001	4531
4001	4901
4001	4914
4003	4457
4004	4461
4004	4615
4005	4734
4005	4800
4007	4137
4007	4434
4007	4499
4009	4986
4010	4660
4012	4755
4012	4929
4013	4199
4013	4294
4013	4447
4014	4593
4015	4123
4017	4475
4018	4158
4019	4301
4020	4151
4020	4549
4020	4589
4021	4027
4021	4653
4023	4439
4024	4416
4025	4855
4026	4107
4026	4808
4027	4305
4029	4297
4029	4437
4030	4393
4031	4588
4033	4415
4033	4699
4034	4156
4034	4390
4034	4686
4034	4886
4035	4262
4035	4562
4038	4492
4038	4495
4038	4630
4038	4794
4039	4782
4042	4567
4042	4622
4042	4678
4042	4874
4043	4710
4044	4178
4045	4098
4045	4626
4046	4111
4046	4315
4046	4694
4046	4823
4046	4863
4047	4259
4051	4417
4052	4142
4053	4749
4054	4217
4054	4677
4054	4930
4057	4435
4057	4773
4060	4671
4061	4161
4061	4212
4061	4349
4061	4486
4061	4644
4061	4646
4062	4245
4062	4420
4063	4456
4063	4751
4063	4822
4063	4993
4064	4322
4064	4776
4066	4498
4069	4150
4069	4190
4069	4253
4070	4295
4070	4412
4071	4286
4071	4429
4071	4750
4072	4750
4072	4891
4072	4922
4073	4585
4074	4162
4074	4260
4075	4592
4076	4670
4078	4503
4079	4380
4080	4408
4080	4416
4080	4980
4081	4114
4082	4118
4082	4635
4082	4775
4083	4884
4085	4205
4086	4173
4087	4692
4088	4095
4088	4207
4089	4300
4090	4865
4093	4397
4094	4274
4095	4474
4095	4516
4095	4539
4096	4209
4096	4502
4096	4763
4098	4651
4098	4660
4099	4212
4099	4898
4099	4965
4100	4328
4100	4892
4101	4575
4101	4656
4101	4831
4102	4593
4102	4732
4102	4821
4103	4896
4104	4573
4104	4959
4106	4169
4106	4545
4107	4147
4107	4257
4107	4325
4107	4540
4107	4980
4108	4909
4109	4183
4109	4245
4109	4779
4112	4158
4112	4749
4113	4483
4114	4574
4114	4765
4115	4560
4115	4939
4116	4853
4117	4247
4122	4694
4123	4554
4123	4738
4125	4490
4125	4982
4126	4330
4127	4383
4127	4417
4127	4642
4127	4700
4127	4890
4128	4247
4128	4395
4128	4490
4129	4839
4131	4948
4132	4167
4132	4735
4133	4398
4134	4398
4134	4809
4135	4666
4138	4516
4138	4819
4139	4222
4139	4714
4139	4847
4140	4772
4141	4227
4141	4630
4142	4842
4143	4209
4143	4258
4143	4376
4143	4625
4143	4949
4144	4812
4144	4852
4145	4861
4147	4681
4147	4978
4149	4371
4150	4259
4151	4466
4151	4927
4152	4564
4152	4663
4154	4366
4154	4991
4155	4851
4155	4903
4156	4575
4157	4304
4158	4286
4158	4650
4158	4939
4159	4606
4161	4400
4161	4441
4161	4859
4162	4204
4162	4206
4162	4217
4162	4242
4163	4388
4163	4399
4163	4557
4163	4863
4164	4474
4164	4852
4165	4175
4165	4623
4168	4311
4170	4447
4170	4789
4170	4848
4172	4416
4172	4503
4172	4554
4172	4600
4172	4656
4173	4727
4173	4824
4174	4285
4176	4507
4176	4519
4176	4637
4177	4478
4179	4839
4179	4966
4180	4460
4180	4610
4181	4420
4181	4861
4182	4196
4182	4285
4183	4261
4183	4474
4183	4613
4183	4998
4184	4326
4184	4659
4186	4410
4187	4389
4190	4460
4190	4478
4191	4254
4191	4374
4192	4635
4194	4495
4195	4640
4196	4301
4196	4917
4198	4586
4198	4985
4203	4586
4203	4964
4207	4243
4207	4827
4208	4497
4208	4825
4210	4484
4211	4838
4213	4682
4215	4890
4216	4787
4216	4973
4217	4325
4217	4829
4218	4347
4218	4585
4218	4658
4219	4410
4219	4732
4220	4494
4221	4314
4221	4449
4221	4485
4221	4615
4221	4845
4222	4256
4222	4628
4223	4266
4223	4636
4227	4839
4228	4841
4229	4287
4229	4411
4229	4482
4229	4869
4230	4631
4230	4707
4230	4923
4231	4300
4231	4469
4231	4531
4231	4549
4233	4600
4233	4725
4233	4908
4235	4388
4236	4256
4236	4290
4236	4409
4236	4885
4236	4896
4239	4910
4241	4386
4243	4309
4243	4587
4246	4433
4246	4643
4246	4676
4248	4321
4248	4415
4251	4867
4252	4521
4252	4854
4253	4313
4253	4533
4254	4640
4255	4317
4256	4710
4259	4927
4259	4955
4260	4500
4260	4648
4262	4549
4264	4539
4264	4646
4264	4861
4265	4585
4265	4641
4265	4661
4266	4489
4267	4637
4269	4859
4269	4925
4271	4680
4271	4743
4271	4834
4272	4846
4273	4693
4273	4875
4274	4445
4274	4462
4274	4519
4274	4820
4274	4901
4275	4858
4276	4787
4277	4996
4278	4797
4279	4991
4280	4587
4280	4826
4281	4459
4281	4978
4282	4467
4283	4558
4284	4454
4284	4664
4285	4611
4288	4673
4289	4426
4290	4897
4291	4379
4291	4487
4292	4328
4292	4337
4292	4389
4295	4308
4295	4730
4296	4599
4296	4620
4296	4876
4298	4736
4299	4416
4299	4484
4299	4800
4299	4895
4300	4497
4300	4550
4300	4696
4301	4811
4301	4986
4302	4351
4302	4543
4302	4732
4302	4802
4304	4479
4304	4482
4305	4978
4306	4351
4306	4497
4308	4538
4310	4474
4310	4819
4310	4898
4310	4920
4311	4773
4312	4464
4313	4469
4314	4701
4314	4946
4317	4340
4317	4818
4317	4960
4319	4487
4320	4428
4321	4940
4322	4396
4322	4404
4322	4542
4327	4717
4328	4892
4329	4675
4329	4791
4330	4716
4330	4802
4331	4977
4332	4617
4332	4644
4332	4725
4332	4916
4333	4802
4333	4892
4334	4833
4339	4906
4341	4605
4342	4566
4344	4447
4346	4483
4348	4619
4348	4972
4350	4582
4351	4527
4352	4719
4355	4507
4356	4633
4357	4488
4358	4520
4358	4593
4359	4440
4360	4641
4360	4920
4360	4991
4361	4584
4365	4883
4366	4920
4367	4655
4367	4689
4367	4930
4368	4660
4369	4474
4369	4947
4370	4612
4373	4471
4373	4821
4374	4952
4375	4997
4377	4386
4378	4956
4379	4855
4380	4418
4380	4430
4380	4907
4381	4938
4386	4844
4386	4847
4387	4602
4389	4805
4391	4936
4391	4969
4393	4742
4394	4490
4396	4455
4396	4932
4397	4473
4397	4629
4397	4821
4398	4869
4399	4643
4399	4659
4401	4652
4402	4428
4402	4816
4403	4728
4403	4782
4404	4695
4405	4512
4405	4514
4407	4936
4408	4900
4409	4439
4410	4583
4410	4941
4411	4425
4411	4578
4411	4833
4413	4663
4413	4677
4413	4909
4418	4619
4418	4837
4419	4833
4424	4590
4427	4466
4427	4672
4427	4962
4428	4952
4430	4636
4431	4495
4431	4496
4431	4682
4431	4703
4431	4793
4431	4814
4434	4488
4435	4599
4436	4534
4437	4735
4438	4440
4438	4733
4440	4552
4443	4538
4444	4687
4444	4696
4447	4711
4448	4862
4449	4864
4449	4967
4450	4673
4451	4820
4451	4919
4451	4990
4454	4825
4454	4967
4455	4474
4455	4676
4456	4637
4456	4816
4460	4474
4460	4666
4460	4808
4460	4850
4462	4644
4462	4816
4464	4927
4465	4604
4466	4656
4466	4781
4467	4828
4468	4585
4468	4914
4471	4749
4473	4604
4473	4898
4474	4528
4475	4650
4476	4673
4478	4705
4478	4715
4479	4503
4480	4858
4481	4489
4481	4607
4483	4871
4484	4486
4484	4581
4484	4981
4485	4542
4487	4611
4488	4934
4489	4700
4490	4797
4491	4716
4492	4722
4493	4709
4493	4940
4499	4542
4499	4618
4502	4614
4502	4809
4504	4586
4504	4962
4505	4596
4506	4813
4513	4828
4514	4523
4514	4862
4516	4840
4518	4589
4518	4986
4521	4815
4522	4746
4523	4685
4525	4990
4526	4622
4526	4884
4527	4713
4528	4619
4530	4978
4532	4601
4532	4780
4533	4607
4534	4882
4535	4895
4536	4540
4537	4812
4538	4596
4538	4693
4539	4843
4539	4915
4540	4801
4541	4910
4543	4939
4544	4839
4544	4937
4548	4647
4548	4727
4548	4913
4548	4954
4553	4635
4555	4599
4556	4987
4559	4598
4560	4914
4566	4763
4566	4864
4568	4735
4569	4643
4569	4785
4570	4639
4571	4722
4572	4914
4573	4622
4575	4641
4575	4739
4575	4829
4577	4694
4577	4802
4581	4700
4581	4953
4582	4796
4583	4792
4586	4720
4588	4803
4592	4640
4592	4932
4593	4898
4597	4651
4597	4697
4597	4884
4599	4819
4602	4815
4602	4905
4604	4748
4604	4750
4604	4776
4604	4988
4605	4921
4608	4677
4613	4882
4614	4661
4617	4891
4617	4941
4620	4961
4624	4861
4624	4898
4624	4985
4626	4900
4630	4877
4630	4936
4630	4985
4631	4662
4631	4667
4632	4690
4632	4702
4634	4686
4635	4772
4637	4890
4638	4667
4638	4877
4641	4887
4645	4652
4650	4787
4650	4873
4650	4978
4653	4669
4655	4751
4662	4843
4662	4925
4662	4929
4663	4716
4664	4898
4665	4781
4667	4979
4667	4994
4670	4856
4670	4936
4672	4977
4674	4985
4678	4939
4679	4744
4680	4837
4682	4732
4682	4822
4682	4931
4685	4906
4688	4771
4690	4777
4693	4861
4695	4910
4696	4745
4698	4955
4701	4812
4701	4990
4706	4870
4710	4906
4712	4724
4713	4857
4713	4937
4720	4950
4723	4859
4723	4861
4726	4874
4729	4850
4733	4839
4733	4864
4733	4959
4741	4745
4741	4823
4747	4920
4748	4943
4750	4815
4751	4934
4759	4987
4763	4854
4766	4773
4769	4775
4771	4773
4772	4944
4773	4843
4776	4983
4779	4880
4784	4853
4786	4960
4788	4976
4796	4907
4799	4813
4804	4959
4810	4950
4811	4956
4813	4862
4815	4993
4817	4989
4819	4944
4831	4882
4845	4909
4855	4911
4857	4897
4862	4900
4866	4981
4886	4962
4893	4985
4898	4964
4904	4932
4905	4989
4913	4978
4916	4950
4926	4951
4928	4981
4932	4947
4934	4960
4935	4942
4950	4975
4970	4981
