0	1
0	2
0	3
0	4
0	5
0	6
0	7
0	8
0	9
0	11
0	13
0	14
0	17
0	18
0	19
0	23
0	24
0	26
0	29
0	32
0	34
0	36
0	39
0	40
0	41
0	46
0	56
0	57
0	60
0	61
0	62
0	66
0	70
0	73
0	75
0	79
0	80
0	84
0	93
0	96
0	98
0	102
0	103
0	105
0	114
0	123
0	134
0	146
0	153
0	155
0	157
0	170
0	171
0	174
0	192
0	199
0	207
0	209
0	213
0	216
0	219
0	233
0	243
0	268
0	280
0	288
0	293
0	317
0	340
0	359
0	370
0	371
0	384
0	388
0	392
0	420
0	429
0	456
0	472
0	531
0	555
0	565
0	602
0	618
0	626
0	633
0	638
0	641
0	665
0	673
0	685
0	707
0	727
0	744
0	751
0	777
0	782
0	786
0	817
0	839
0	841
0	845
0	884
0	885
0	891
0	895
0	911
0	922
0	943
0	944
0	948
0	955
0	961
0	987
0	1003
0	1017
0	1049
0	1094
0	1096
0	1125
0	1166
0	1177
0	1191
0	1207
0	1210
0	1239
0	1268
0	1337
0	1358
0	1389
0	1418
0	1449
0	1459
0	1465
0	1524
0	1528
0	1544
0	1567
0	1568
0	1569
0	1573
0	1602
0	1632
0	1665
0	1670
0	1673
0	1679
0	1687
0	1707
0	1723
0	1731
0	1781
0	1788
0	1829
0	1842
0	1848
0	1856
0	1867
0	1892
0	1931
0	1950
0	1951
0	1963
0	1964
0	2036
0	2115
0	2118
0	2155
0	2183
0	2192
0	2194
0	2228
0	2237
0	2242
0	2269
0	2272
0	2289
0	2296
0	2342
0	2410
0	2424
0	2481
0	2501
0	2509
0	2553
0	2574
0	2609
0	2614
0	2625
0	2649
0	2684
0	2710
0	2746
0	2763
0	2796
0	2804
0	2831
0	2836
0	2905
0	2948
0	2963
0	3039
0	3075
0	3174
0	3187
0	3253
0	3283
0	3291
0	3293
0	3301
0	3320
0	3385
0	3403
0	3408
0	3448
0	3457
0	3473
0	3498
0	3508
0	3536
0	3538
0	3583
0	3586
0	3614
0	3638
0	3699
0	3723
0	3795
0	3835
0	3845
0	3918
0	3940
0	3963
0	3977
0	4071
0	4072
0	4102
0	4193
0	4224
0	4264
0	4281
0	4324
0	4347
0	4488
0	4490
0	4505
0	4520
0	4531
0	4661
0	4733
0	4800
0	4821
0	4840
0	4885
0	4913
0	4924
0	4977
0	4994
1	7
1	10
1	12
1	16
1	48
1	52
1	61
1	68
1	86
1	103
1	104
1	105
1	110
1	147
1	168
1	183
1	204
1	215
1	261
1	291
1	347
1	357
1	365
1	381
1	383
1	389
1	446
1	461
1	485
1	533
1	553
1	569
1	579
1	601
1	694
1	714
1	751
1	780
1	870
1	884
1	1121
1	1180
1	1323
1	1445
1	1454
1	1495
1	1565
1	1575
1	1592
1	1653
1	1732
1	1796
1	2063
1	2330
1	2381
1	2422
1	2486
1	2528
1	2531
1	2549
1	2551
1	2590
1	2651
1	2660
1	2728
1	2734
1	2774
1	2788
1	2800
1	2859
1	2880
1	2950
1	2999
1	3165
1	3217
1	3444
1	3555
1	3583
1	3609
1	3619
1	3668
1	3720
1	3770
1	4187
1	4205
1	4223
1	4780
1	4786
2	6
2	7
2	8
2	9
2	16
2	29
2	48
2	93
2	113
2	135
2	168
2	201
2	266
2	298
2	307
2	309
2	390
2	401
2	405
2	484
2	513
2	546
2	557
2	604
2	694
2	720
2	758
2	769
2	805
2	829
2	983
2	989
2	1054
2	1081
2	1092
2	1154
2	1181
2	1184
2	1195
2	1200
2	1210
2	1220
2	1286
2	1333
2	1342
2	1349
2	1417
2	1454
2	1516
2	1552
2	1569
2	1643
2	1745
2	1798
2	2185
2	2202
2	2271
2	2371
2	2525
2	2544
2	2590
2	2654
2	2978
2	3093
2	3102
2	3183
2	3209
2	3319
2	3453
2	3530
2	3553
2	3683
2	3786
2	3806
2	3940
2	4179
2	4238
2	4368
2	4370
2	4385
2	4618
2	4619
2	4678
2	4715
2	4858
3	6
3	8
3	10
3	13
3	14
3	16
3	23
3	39
3	40
3	46
3	53
3	59
3	72
3	75
3	83
3	86
3	109
3	124
3	195
3	214
3	217
3	224
3	230
3	235
3	254
3	276
3	302
3	320
3	357
3	399
3	437
3	558
3	565
3	583
3	589
3	636
3	675
3	676
3	725
3	726
3	785
3	798
3	818
3	906
3	910
3	962
3	1021
3	1044
3	1050
3	1159
3	1182
3	1211
3	1232
3	1327
3	1413
3	1510
3	1563
3	1578
3	1606
3	1634
3	1713
3	1727
3	1775
3	1834
3	1836
3	1921
3	1955
3	2064
3	2086
3	2129
3	2156
3	2181
3	2230
3	2352
3	2478
3	2522
3	2537
3	2624
3	2758
3	3000
3	3010
3	3164
3	3373
3	3601
3	3657
3	3829
3	3919
3	4271
3	4605
3	4648
3	4709
3	4716
3	4793
3	4812
3	4883
3	4890
4	6
4	7
4	12
4	18
4	23
4	50
4	69
4	89
4	92
4	98
4	113
4	121
4	131
4	147
4	188
4	206
4	229
4	267
4	305
4	421
4	479
4	582
4	629
4	699
4	722
4	737
4	756
4	801
4	966
4	1012
4	1015
4	1026
4	1058
4	1064
4	1270
4	1457
4	1522
4	1607
4	2173
4	2199
4	2285
4	2360
4	2372
4	2386
4	2402
4	2468
4	2544
4	2636
4	2811
4	2915
4	2961
4	3000
4	3315
4	3370
4	3454
4	3473
4	3509
4	3564
4	3597
4	3606
4	3809
4	3847
4	3895
4	4155
4	4423
4	4483
4	4493
4	4518
4	4609
4	4626
4	4632
4	4701
4	4963
5	6
5	15
5	18
5	32
5	57
5	64
5	65
5	67
5	77
5	90
5	92
5	94
5	95
5	118
5	122
5	124
5	158
5	160
5	182
5	185
5	205
5	226
5	261
5	289
5	294
5	376
5	451
5	454
5	470
5	552
5	642
5	707
5	740
5	751
5	770
5	773
5	840
5	1006
5	1013
5	1066
5	1096
5	1189
5	1218
5	1353
5	1378
5	1475
5	1484
5	1503
5	1542
5	1604
5	1613
5	1637
5	1662
5	1718
5	1791
5	1920
5	1943
5	1996
5	2016
5	2044
5	2086
5	2127
5	2146
5	2166
5	2325
5	2335
5	2376
5	2539
5	2787
5	2851
5	2855
5	3176
5	3248
5	3524
5	3655
5	3703
5	3714
5	3740
5	3894
5	3911
5	4066
5	4280
5	4360
5	4368
5	4512
5	4548
5	4572
5	4626
5	4667
5	4691
5	4751
5	4754
5	4829
5	4834
6	7
6	8
6	9
6	10
6	11
6	12
6	19
6	25
6	26
6	38
6	42
6	44
6	47
6	74
6	79
6	86
6	88
6	132
6	139
6	140
6	143
6	145
6	154
6	196
6	197
6	198
6	211
6	229
6	241
6	252
6	275
6	286
6	319
6	340
6	343
6	347
6	365
6	370
6	381
6	405
6	416
6	435
6	457
6	468
6	486
6	499
6	500
6	515
6	524
6	531
6	538
6	546
6	559
6	590
6	591
6	614
6	657
6	695
6	766
6	788
6	957
6	1014
6	1071
6	1097
6	1135
6	1155
6	1190
6	1196
6	1242
6	1264
6	1317
6	1327
6	1346
6	1359
6	1380
6	1443
6	1487
6	1543
6	1571
6	1593
6	1620
6	1658
6	1673
6	1702
6	1713
6	1715
6	1786
6	1883
6	1931
6	1955
6	1958
6	2000
6	2008
6	2019
6	2043
6	2139
6	2320
6	2358
6	2382
6	2449
6	2552
6	2649
6	2682
6	2889
6	2923
6	2958
6	3105
6	3115
6	3244
6	3276
6	3281
6	3296
6	3311
6	3337
6	3451
6	3529
6	3572
6	3613
6	3731
6	3841
6	3882
6	3906
6	3988
6	4010
6	4041
6	4149
6	4164
6	4205
6	4429
6	4458
6	4544
6	4580
6	4601
6	4670
6	4842
6	4932
7	8
7	9
7	10
7	11
7	12
7	13
7	15
7	17
7	20
7	24
7	27
7	28
7	31
7	32
7	33
7	34
7	35
7	37
7	41
7	42
7	46
7	47
7	53
7	54
7	59
7	61
7	64
7	68
7	69
7	83
7	84
7	89
7	91
7	94
7	95
7	99
7	101
7	109
7	118
7	134
7	144
7	146
7	167
7	170
7	171
7	174
7	181
7	182
7	183
7	185
7	186
7	189
7	190
7	192
7	199
7	201
7	204
7	208
7	210
7	218
7	225
7	229
7	242
7	246
7	256
7	268
7	270
7	272
7	274
7	295
7	296
7	305
7	308
7	311
7	323
7	329
7	330
7	331
7	359
7	386
7	410
7	415
7	416
7	423
7	444
7	449
7	462
7	472
7	475
7	488
7	498
7	499
7	503
7	505
7	516
7	522
7	545
7	570
7	575
7	582
7	596
7	607
7	608
7	612
7	633
7	650
7	661
7	665
7	669
7	672
7	675
7	681
7	696
7	727
7	734
7	743
7	746
7	749
7	757
7	772
7	787
7	791
7	803
7	819
7	821
7	828
7	835
7	843
7	851
7	852
7	874
7	877
7	880
7	891
7	892
7	912
7	922
7	952
7	954
7	974
7	988
7	995
7	996
7	1017
7	1019
7	1021
7	1085
7	1102
7	1109
7	1118
7	1123
7	1124
7	1136
7	1242
7	1255
7	1273
7	1293
7	1325
7	1371
7	1381
7	1395
7	1409
7	1413
7	1416
7	1469
7	1472
7	1489
7	1539
7	1596
7	1614
7	1637
7	1638
7	1641
7	1651
7	1674
7	1704
7	1719
7	1764
7	1765
7	1790
7	1792
7	1805
7	1852
7	1861
7	1880
7	1915
7	1975
7	2003
7	2011
7	2014
7	2024
7	2067
7	2083
7	2090
7	2115
7	2122
7	2151
7	2172
7	2187
7	2200
7	2202
7	2241
7	2284
7	2310
7	2317
7	2332
7	2336
7	2337
7	2347
7	2361
7	2394
7	2398
7	2417
7	2421
7	2428
7	2435
7	2455
7	2485
7	2527
7	2578
7	2583
7	2587
7	2615
7	2617
7	2631
7	2637
7	2687
7	2698
7	2716
7	2762
7	2765
7	2776
7	2813
7	2844
7	2849
7	2914
7	2918
7	2925
7	2944
7	2981
7	3021
7	3085
7	3088
7	3102
7	3154
7	3158
7	3215
7	3225
7	3255
7	3272
7	3277
7	3290
7	3292
7	3321
7	3341
7	3342
7	3343
7	3353
7	3418
7	3471
7	3487
7	3588
7	3589
7	3592
7	3651
7	3665
7	3714
7	3756
7	3771
7	3817
7	3840
7	3876
7	3888
7	3900
7	3905
7	3920
7	3923
7	3926
7	3944
7	3959
7	3967
7	3988
7	4032
7	4051
7	4083
7	4133
7	4141
7	4143
7	4150
7	4171
7	4178
7	4198
7	4218
7	4245
7	4248
7	4253
7	4305
7	4379
7	4385
7	4389
7	4394
7	4444
7	4454
7	4534
7	4575
7	4603
7	4604
7	4637
7	4670
7	4679
7	4686
7	4696
7	4699
7	4779
7	4780
7	4793
7	4824
7	4906
7	4913
7	4956
7	4961
7	4966
7	4974
7	4999
8	9
8	10
8	11
8	13
8	14
8	18
8	19
8	20
8	21
8	22
8	23
8	24
8	27
8	31
8	34
8	41
8	42
8	43
8	44
8	48
8	50
8	51
8	57
8	62
8	75
8	78
8	79
8	81
8	84
8	86
8	92
8	98
8	110
8	111
8	114
8	125
8	128
8	130
8	133
8	134
8	139
8	142
8	149
8	151
8	157
8	162
8	163
8	172
8	173
8	181
8	187
8	189
8	195
8	214
8	217
8	223
8	224
8	236
8	252
8	258
8	259
8	264
8	281
8	282
8	283
8	285
8	289
8	301
8	327
8	335
8	339
8	342
8	343
8	361
8	376
8	393
8	403
8	405
8	429
8	435
8	441
8	445
8	448
8	460
8	477
8	489
8	490
8	496
8	500
8	516
8	528
8	555
8	563
8	576
8	587
8	588
8	589
8	591
8	611
8	621
8	640
8	652
8	659
8	683
8	693
8	704
8	722
8	734
8	739
8	740
8	760
8	788
8	828
8	829
8	850
8	853
8	856
8	858
8	872
8	885
8	891
8	931
8	937
8	959
8	989
8	1006
8	1033
8	1045
8	1063
8	1095
8	1122
8	1179
8	1254
8	1261
8	1265
8	1275
8	1283
8	1323
8	1342
8	1372
8	1394
8	1432
8	1453
8	1455
8	1462
8	1471
8	1489
8	1539
8	1547
8	1579
8	1584
8	1630
8	1689
8	1691
8	1743
8	1764
8	1823
8	1842
8	1899
8	1906
8	1945
8	1965
8	1992
8	2023
8	2075
8	2093
8	2100
8	2105
8	2242
8	2248
8	2252
8	2260
8	2294
8	2341
8	2343
8	2346
8	2348
8	2359
8	2375
8	2411
8	2426
8	2441
8	2472
8	2507
8	2550
8	2580
8	2656
8	2665
8	2750
8	2753
8	2824
8	2892
8	2950
8	2978
8	2980
8	2982
8	2997
8	3017
8	3192
8	3229
8	3267
8	3269
8	3382
8	3408
8	3425
8	3431
8	3523
8	3588
8	3643
8	3710
8	3728
8	3736
8	3755
8	3756
8	3763
8	3785
8	3901
8	3980
8	3989
8	4051
8	4119
8	4148
8	4174
8	4190
8	4243
8	4260
8	4286
8	4335
8	4404
8	4415
8	4457
8	4470
8	4495
8	4522
8	4530
8	4536
8	4581
8	4594
8	4652
8	4668
8	4706
8	4752
8	4767
8	4770
8	4815
8	4848
8	4850
8	4861
8	4882
8	4906
9	12
9	13
9	14
9	15
9	16
9	17
9	19
9	21
9	22
9	30
9	32
9	33
9	35
9	36
9	37
9	39
9	40
9	43
9	45
9	50
9	52
9	54
9	56
9	60
9	62
9	65
9	66
9	68
9	75
9	76
9	85
9	87
9	95
9	97
9	106
9	107
9	110
9	114
9	115
9	125
9	128
9	129
9	130
9	138
9	142
9	146
9	147
9	152
9	157
9	167
9	168
9	171
9	182
9	190
9	198
9	211
9	214
9	226
9	232
9	240
9	243
9	247
9	248
9	253
9	254
9	257
9	264
9	267
9	272
9	275
9	277
9	297
9	309
9	315
9	316
9	319
9	321
9	324
9	330
9	351
9	353
9	370
9	381
9	396
9	397
9	400
9	403
9	404
9	420
9	433
9	436
9	439
9	458
9	467
9	471
9	490
9	497
9	501
9	526
9	554
9	561
9	588
9	590
9	615
9	618
9	628
9	629
9	651
9	677
9	701
9	703
9	710
9	711
9	723
9	776
9	780
9	781
9	787
9	791
9	825
9	828
9	830
9	877
9	892
9	897
9	911
9	918
9	920
9	923
9	938
9	940
9	1024
9	1034
9	1040
9	1079
9	1097
9	1143
9	1154
9	1179
9	1192
9	1195
9	1241
9	1246
9	1259
9	1273
9	1279
9	1288
9	1290
9	1305
9	1341
9	1345
9	1352
9	1362
9	1375
9	1394
9	1396
9	1402
9	1423
9	1440
9	1461
9	1489
9	1497
9	1529
9	1548
9	1582
9	1594
9	1623
9	1632
9	1641
9	1658
9	1681
9	1758
9	1760
9	1802
9	1809
9	1833
9	1897
9	1901
9	1917
9	1934
9	1971
9	1994
9	2104
9	2111
9	2131
9	2166
9	2167
9	2176
9	2198
9	2210
9	2263
9	2323
9	2342
9	2348
9	2370
9	2392
9	2398
9	2412
9	2427
9	2443
9	2532
9	2553
9	2571
9	2577
9	2594
9	2611
9	2643
9	2645
9	2676
9	2687
9	2691
9	2694
9	2727
9	2730
9	2751
9	2765
9	2766
9	2810
9	2825
9	2833
9	2840
9	2869
9	2874
9	2882
9	2895
9	2920
9	2938
9	2956
9	2972
9	3011
9	3013
9	3029
9	3045
9	3047
9	3073
9	3104
9	3110
9	3124
9	3128
9	3137
9	3144
9	3152
9	3168
9	3170
9	3185
9	3252
9	3264
9	3273
9	3274
9	3309
9	3338
9	3346
9	3370
9	3372
9	3387
9	3406
9	3431
9	3432
9	3440
9	3455
9	3469
9	3507
9	3530
9	3539
9	3613
9	3629
9	3692
9	3769
9	3786
9	3818
9	3850
9	3897
9	3910
9	3943
9	3945
9	3989
9	3990
9	4000
9	4045
9	4066
9	4090
9	4156
9	4157
9	4163
9	4169
9	4178
9	4193
9	4219
9	4237
9	4257
9	4268
9	4305
9	4391
9	4428
9	4470
9	4471
9	4475
9	4494
9	4502
9	4506
9	4531
9	4542
9	4548
9	4606
9	4617
9	4630
9	4633
9	4721
9	4741
9	4746
9	4753
9	4858
9	4890
9	4954
9	4981
9	4986
9	4989
10	11
10	14
10	17
10	18
10	22
10	26
10	33
10	34
10	35
10	49
10	59
10	60
10	64
10	74
10	79
10	102
10	106
10	110
10	113
10	127
10	128
10	129
10	151
10	165
10	176
10	179
10	194
10	208
10	213
10	214
10	217
10	219
10	237
10	239
10	240
10	250
10	259
10	266
10	269
10	292
10	296
10	340
10	352
10	385
10	402
10	424
10	499
10	516
10	518
10	520
10	530
10	536
10	603
10	604
10	629
10	632
10	670
10	703
10	741
10	766
10	817
10	834
10	835
10	901
10	913
10	914
10	927
10	949
10	961
10	974
10	983
10	1037
10	1056
10	1118
10	1129
10	1144
10	1166
10	1169
10	1181
10	1190
10	1221
10	1250
10	1293
10	1345
10	1347
10	1393
10	1398
10	1438
10	1461
10	1498
10	1561
10	1625
10	1639
10	1650
10	1656
10	1659
10	1662
10	1670
10	1709
10	1780
10	1802
10	1821
10	1842
10	1846
10	1916
10	1927
10	1975
10	1978
10	1991
10	2082
10	2145
10	2170
10	2195
10	2240
10	2283
10	2330
10	2354
10	2398
10	2416
10	2487
10	2560
10	2596
10	2604
10	2610
10	2656
10	2735
10	2756
10	2799
10	2832
10	2866
10	2914
10	2943
10	2993
10	3031
10	3160
10	3171
10	3192
10	3203
10	3263
10	3312
10	3389
10	3437
10	3516
10	3532
10	3578
10	3649
10	3720
10	3721
10	3747
10	3776
10	3875
10	3904
10	3984
10	3997
10	4000
10	4021
10	4026
10	4081
10	4088
10	4130
10	4162
10	4183
10	4202
10	4292
10	4335
10	4513
10	4565
10	4587
10	4588
10	4610
10	4618
10	4649
10	4652
10	4673
10	4820
10	4836
10	4874
10	4963
10	4975
10	4989
11	16
11	19
11	20
11	21
11	25
11	27
11	30
11	31
11	35
11	44
11	58
11	59
11	60
11	61
11	77
11	78
11	98
11	117
11	147
11	184
11	210
11	255
11	331
11	355
11	373
11	379
11	388
11	395
11	432
11	438
11	455
11	521
11	532
11	561
11	628
11	643
11	649
11	702
11	708
11	716
11	726
11	762
11	797
11	803
11	836
11	898
11	913
11	925
11	997
11	1009
11	1074
11	1099
11	1141
11	1176
11	1234
11	1323
11	1403
11	1588
11	1659
11	1660
11	1674
11	1714
11	1736
11	1782
11	1810
11	1857
11	1867
11	1924
11	1957
11	1960
11	1963
11	2096
11	2105
11	2106
11	2275
11	2421
11	2445
11	2487
11	2566
11	2600
11	2632
11	2794
11	2853
11	2861
11	2972
11	3077
11	3093
11	3115
11	3146
11	3466
11	3533
11	3622
11	3678
11	3687
11	3884
11	3974
11	4007
11	4025
11	4070
11	4177
11	4220
11	4270
11	4338
11	4362
11	4377
11	4412
11	4446
11	4542
11	4561
11	4597
11	4901
11	4965
11	4975
12	15
12	28
12	31
12	38
12	42
12	47
12	66
12	77
12	80
12	83
12	206
12	284
12	313
12	363
12	382
12	383
12	407
12	491
12	525
12	542
12	554
12	573
12	609
12	655
12	686
12	701
12	739
12	768
12	775
12	801
12	808
12	873
12	905
12	908
12	911
12	918
12	921
12	937
12	942
12	944
12	1028
12	1039
12	1072
12	1102
12	1250
12	1263
12	1290
12	1303
12	1321
12	1380
12	1397
12	1432
12	1588
12	1698
12	1728
12	1878
12	1893
12	1901
12	1912
12	2074
12	2226
12	2251
12	2261
12	2283
12	2305
12	2382
12	2513
12	2590
12	2740
12	2777
12	2779
12	2945
12	3057
12	3095
12	3238
12	3260
12	3417
12	3665
12	3667
12	3897
12	3955
12	4054
12	4297
12	4299
12	4499
12	4536
12	4630
12	4649
12	4725
12	4816
13	15
13	28
13	55
13	73
13	81
13	101
13	103
13	184
13	202
13	203
13	240
13	262
13	263
13	287
13	316
13	324
13	361
13	441
13	453
13	488
13	534
13	587
13	595
13	623
13	682
13	772
13	870
13	882
13	909
13	948
13	1015
13	1076
13	1088
13	1123
13	1137
13	1139
13	1199
13	1247
13	1494
13	1530
13	1585
13	1618
13	1858
13	1938
13	2015
13	2208
13	2281
13	2362
13	2480
13	2517
13	2564
13	2622
13	2671
13	2675
13	2897
13	2998
13	3044
13	3087
13	3089
13	3161
13	3459
13	3661
13	3883
13	4050
13	4428
13	4516
13	4641
13	4803
13	4814
13	4943
14	25
14	45
14	49
14	55
14	111
14	275
14	564
14	691
14	722
14	795
14	847
14	866
14	926
14	945
14	975
14	1010
14	1070
14	1118
14	1443
14	1485
14	1582
14	1875
14	1942
14	1954
14	1969
14	1998
14	2158
14	2200
14	2307
14	2369
14	2418
14	2481
14	2564
14	2733
14	2906
14	3309
14	3480
14	3895
14	3922
14	4006
14	4091
14	4332
14	4400
14	4549
14	4635
14	4751
14	4930
14	4953
15	22
15	24
15	36
15	39
15	43
15	48
15	55
15	58
15	70
15	71
15	74
15	75
15	81
15	87
15	103
15	108
15	121
15	131
15	133
15	135
15	137
15	148
15	159
15	169
15	172
15	174
15	246
15	254
15	267
15	293
15	306
15	312
15	313
15	317
15	318
15	320
15	345
15	347
15	372
15	375
15	383
15	398
15	400
15	427
15	428
15	440
15	490
15	497
15	543
15	550
15	589
15	590
15	597
15	681
15	685
15	695
15	705
15	769
15	971
15	1039
15	1051
15	1052
15	1086
15	1117
15	1124
15	1146
15	1221
15	1227
15	1230
15	1240
15	1249
15	1281
15	1284
15	1293
15	1311
15	1350
15	1351
15	1353
15	1518
15	1533
15	1559
15	1568
15	1605
15	1610
15	1633
15	1699
15	1771
15	1875
15	1962
15	2008
15	2019
15	2205
15	2208
15	2233
15	2234
15	2286
15	2302
15	2391
15	2410
15	2433
15	2454
15	2495
15	2582
15	2716
15	2726
15	2766
15	2774
15	2876
15	2922
15	2979
15	3042
15	3051
15	3056
15	3083
15	3161
15	3179
15	3189
15	3235
15	3304
15	3394
15	3403
15	3423
15	3434
15	3450
15	3593
15	3604
15	3638
15	3678
15	3693
15	3705
15	3769
15	3820
15	3913
15	3921
15	3929
15	3972
15	4098
15	4209
15	4280
15	4300
15	4302
15	4373
15	4375
15	4391
15	4448
15	4450
15	4510
15	4516
15	4582
15	4596
15	4662
15	4668
15	4813
15	4878
15	4887
15	4909
15	4912
15	4974
16	17
16	20
16	25
16	29
16	39
16	40
16	41
16	44
16	45
16	47
16	71
16	83
16	91
16	93
16	95
16	123
16	132
16	162
16	175
16	179
16	180
16	182
16	207
16	213
16	230
16	231
16	294
16	301
16	307
16	331
16	337
16	377
16	382
16	431
16	481
16	495
16	497
16	503
16	510
16	524
16	538
16	567
16	579
16	585
16	603
16	608
16	613
16	762
16	785
16	787
16	806
16	881
16	1002
16	1022
16	1042
16	1054
16	1076
16	1077
16	1118
16	1170
16	1217
16	1436
16	1453
16	1498
16	1564
16	1568
16	1573
16	1586
16	1600
16	1635
16	1704
16	1730
16	1772
16	1793
16	1895
16	1911
16	2121
16	2257
16	2341
16	2383
16	2403
16	2471
16	2512
16	2528
16	2578
16	2611
16	2646
16	2754
16	2761
16	2859
16	2899
16	2916
16	2930
16	3073
16	3086
16	3135
16	3224
16	3382
16	3508
16	3568
16	3626
16	3648
16	3722
16	3741
16	3761
16	3794
16	3817
16	3856
16	3873
16	3891
16	3943
16	3986
16	4020
16	4050
16	4142
16	4206
16	4293
16	4313
16	4385
16	4396
16	4409
16	4497
16	4531
16	4842
16	4863
16	4864
16	4873
16	4921
16	4940
17	20
17	23
17	26
17	29
17	30
17	35
17	38
17	49
17	51
17	62
17	77
17	100
17	123
17	164
17	252
17	256
17	274
17	290
17	297
17	298
17	332
17	357
17	369
17	443
17	526
17	545
17	563
17	578
17	659
17	686
17	816
17	834
17	836
17	928
17	1097
17	1149
17	1226
17	1364
17	1468
17	1535
17	1630
17	1692
17	1758
17	2073
17	2446
17	2530
17	2547
17	2639
17	2722
17	3128
17	3133
17	3180
17	3207
17	3241
17	3270
17	3386
17	3537
17	3626
17	3773
17	3865
17	3900
17	4052
17	4194
17	4372
17	4426
17	4480
17	4531
17	4612
17	4816
17	4836
17	4875
17	4988
17	4991
18	21
18	25
18	27
18	36
18	37
18	41
18	63
18	65
18	67
18	70
18	85
18	87
18	146
18	155
18	175
18	193
18	216
18	234
18	244
18	245
18	373
18	414
18	427
18	466
18	486
18	543
18	564
18	574
18	583
18	638
18	639
18	683
18	703
18	711
18	725
18	769
18	783
18	849
18	857
18	877
18	885
18	888
18	899
18	919
18	922
18	937
18	960
18	998
18	1012
18	1045
18	1108
18	1124
18	1168
18	1171
18	1246
18	1282
18	1293
18	1354
18	1379
18	1442
18	1450
18	1519
18	1577
18	1605
18	1684
18	1692
18	1706
18	1739
18	1825
18	1893
18	1908
18	1964
18	2126
18	2139
18	2175
18	2256
18	2264
18	2336
18	2406
18	2457
18	2505
18	2542
18	2810
18	2834
18	2845
18	2852
18	2890
18	2906
18	3072
18	3126
18	3277
18	3348
18	3379
18	3492
18	3530
18	3580
18	3633
18	3680
18	3740
18	3778
18	3806
18	3819
18	3965
18	3999
18	4090
18	4093
18	4399
18	4401
18	4481
18	4686
18	4733
18	4740
18	4743
18	4761
18	4855
18	4903
18	4934
18	4971
18	4986
19	21
19	22
19	24
19	26
19	27
19	28
19	29
19	38
19	53
19	56
19	58
19	64
19	88
19	92
19	95
19	96
19	111
19	116
19	130
19	155
19	162
19	172
19	175
19	186
19	190
19	194
19	200
19	203
19	220
19	229
19	266
19	269
19	285
19	307
19	322
19	331
19	332
19	341
19	342
19	346
19	366
19	406
19	437
19	470
19	472
19	488
19	492
19	505
19	622
19	644
19	648
19	668
19	850
19	887
19	1004
19	1033
19	1147
19	1155
19	1169
19	1188
19	1195
19	1221
19	1321
19	1331
19	1355
19	1402
19	1438
19	1476
19	1509
19	1520
19	1550
19	1661
19	1677
19	1733
19	1875
19	1902
19	1947
19	1957
19	1972
19	1985
19	1990
19	2045
19	2144
19	2149
19	2159
19	2180
19	2204
19	2209
19	2232
19	2364
19	2400
19	2409
19	2463
19	2515
19	2533
19	2570
19	2654
19	2691
19	2754
19	2797
19	2869
19	3094
19	3100
19	3134
19	3142
19	3158
19	3268
19	3446
19	3449
19	3481
19	3517
19	3635
19	3646
19	3687
19	3708
19	3792
19	3841
19	3860
19	3883
19	4044
19	4047
19	4124
19	4435
19	4518
19	4621
19	4749
19	4923
19	4967
20	33
20	37
20	40
20	58
20	71
20	74
20	82
20	118
20	120
20	140
20	143
20	159
20	168
20	187
20	282
20	368
20	379
20	382
20	470
20	487
20	513
20	525
20	648
20	800
20	807
20	811
20	813
20	919
20	936
20	1110
20	1122
20	1133
20	1140
20	1223
20	1225
20	1243
20	1269
20	1275
20	1281
20	1303
20	1324
20	1435
20	1536
20	1539
20	1603
20	1616
20	1686
20	1708
20	1762
20	1771
20	1847
20	1888
20	1894
20	1936
20	2002
20	2014
20	2015
20	2374
20	2446
20	2454
20	2568
20	2599
20	2610
20	2686
20	2695
20	2789
20	3068
20	3071
20	3136
20	3347
20	3423
20	3525
20	3541
20	3622
20	3702
20	3923
20	3990
20	4001
20	4048
20	4106
20	4456
20	4465
20	4607
20	4698
20	4744
20	4776
21	32
21	42
21	49
21	76
21	83
21	93
21	120
21	121
21	133
21	141
21	181
21	195
21	202
21	220
21	232
21	247
21	265
21	284
21	335
21	344
21	366
21	394
21	398
21	401
21	449
21	551
21	668
21	681
21	928
21	1007
21	1062
21	1093
21	1144
21	1280
21	1394
21	1469
21	1550
21	1574
21	1634
21	1795
21	1982
21	2101
21	2223
21	2273
21	2288
21	2367
21	2372
21	2552
21	2631
21	2651
21	2851
21	3074
21	3156
21	3173
21	3214
21	3257
21	3306
21	3409
21	3422
21	3424
21	3442
21	3666
21	3983
21	4166
21	4367
21	4476
21	4485
21	4551
21	4833
21	4896
21	4969
22	104
22	149
22	154
22	222
22	246
22	273
22	361
22	394
22	404
22	514
22	799
22	998
22	1088
22	1089
22	1093
22	1314
22	1402
22	1484
22	1491
22	1568
22	1636
22	1789
22	1794
22	1810
22	1844
22	1853
22	2001
22	2045
22	2136
22	2588
22	2620
22	2820
22	3172
22	3284
22	3445
22	3588
22	3831
22	3876
22	3896
22	4234
22	4292
22	4364
23	33
23	196
23	202
23	231
23	255
23	306
23	452
23	522
23	537
23	567
23	634
23	721
23	839
23	1085
23	1109
23	1128
23	1135
23	1252
23	1253
23	1300
23	1329
23	1338
23	1375
23	1392
23	1510
23	1578
23	1659
23	1713
23	1756
23	1811
23	1901
23	2061
23	2169
23	2237
23	2360
23	2483
23	2539
23	2589
23	2739
23	2840
23	2922
23	3432
23	3837
23	3890
23	3944
23	4245
23	4311
23	4389
23	4529
23	4635
23	4663
23	4725
23	4778
23	4814
23	4860
23	4875
23	4928
24	28
24	30
24	88
24	102
24	116
24	136
24	138
24	200
24	211
24	337
24	362
24	385
24	402
24	408
24	642
24	767
24	990
24	1265
24	1316
24	1345
24	1519
24	1729
24	2017
24	2084
24	2124
24	2164
24	2218
24	2450
24	2673
24	2708
24	2810
24	3432
24	3615
24	3955
24	3988
24	4127
24	4320
24	4462
24	4483
24	4539
24	4593
24	4657
24	4717
25	45
25	48
25	54
25	55
25	56
25	60
25	63
25	72
25	109
25	141
25	152
25	161
25	166
25	247
25	263
25	283
25	297
25	343
25	517
25	611
25	643
25	721
25	774
25	816
25	931
25	976
25	983
25	999
25	1112
25	1155
25	1186
25	1212
25	1584
25	1622
25	1747
25	1844
25	1851
25	1873
25	2149
25	2174
25	2281
25	2318
25	2343
25	2370
25	2381
25	2608
25	2617
25	2753
25	2801
25	2995
25	3123
25	3170
25	3259
25	3274
25	3573
25	3718
25	3723
25	3872
25	4043
25	4131
25	4406
25	4617
25	4694
25	4750
25	4841
25	4890
25	4934
26	36
26	46
26	50
26	52
26	54
26	61
26	67
26	72
26	76
26	80
26	84
26	97
26	102
26	104
26	106
26	111
26	113
26	126
26	145
26	148
26	154
26	157
26	184
26	193
26	235
26	244
26	249
26	251
26	269
26	301
26	321
26	332
26	339
26	365
26	375
26	385
26	424
26	430
26	431
26	436
26	444
26	445
26	458
26	459
26	467
26	508
26	525
26	537
26	573
26	575
26	594
26	652
26	689
26	715
26	716
26	732
26	735
26	759
26	793
26	795
26	852
26	879
26	932
26	1000
26	1006
26	1013
26	1029
26	1047
26	1082
26	1096
26	1110
26	1114
26	1191
26	1209
26	1220
26	1223
26	1228
26	1254
26	1257
26	1271
26	1304
26	1310
26	1336
26	1365
26	1389
26	1434
26	1458
26	1532
26	1578
26	1628
26	1630
26	1683
26	1732
26	1750
26	1794
26	1811
26	1868
26	1886
26	2066
26	2188
26	2193
26	2224
26	2290
26	2305
26	2345
26	2367
26	2390
26	2410
26	2511
26	2535
26	2649
26	2655
26	2670
26	2726
26	2770
26	2771
26	2877
26	2933
26	2948
26	3083
26	3118
26	3217
26	3272
26	3444
26	3463
26	3533
26	3537
26	3592
26	3658
26	3664
26	3710
26	3733
26	3734
26	3852
26	3947
26	3966
26	3995
26	4003
26	4008
26	4084
26	4096
26	4124
26	4384
26	4419
26	4444
26	4453
26	4615
26	4723
26	4777
26	4784
26	4824
26	4853
26	4882
26	4885
26	4931
27	50
27	51
27	86
27	87
27	88
27	122
27	193
27	231
27	305
27	313
27	387
27	747
27	794
27	826
27	950
27	971
27	1037
27	1274
27	1428
27	1604
27	1705
27	1855
27	2031
27	2184
27	2230
27	2291
27	2710
27	2773
27	2794
27	3125
27	3210
27	3433
27	3585
27	3641
27	3836
27	3949
27	4229
27	4494
27	4784
27	4852
28	46
28	51
28	188
28	207
28	214
28	356
28	449
28	454
28	639
28	803
28	977
28	1150
28	1282
28	1570
28	1626
28	1867
28	1999
28	2032
28	2146
28	2166
28	2167
28	2230
28	2276
28	2418
28	2479
28	2776
28	2785
28	3035
28	3252
28	3258
28	3569
28	3716
28	3754
28	4053
28	4208
28	4287
28	4315
28	4492
28	4699
28	4750
28	4869
28	4912
29	30
29	34
29	43
29	55
29	85
29	106
29	114
29	142
29	161
29	192
29	205
29	219
29	258
29	261
29	274
29	286
29	294
29	339
29	367
29	374
29	392
29	425
29	442
29	481
29	504
29	528
29	534
29	536
29	548
29	702
29	792
29	838
29	916
29	978
29	999
29	1005
29	1013
29	1194
29	1220
29	1242
29	1243
29	1269
29	1315
29	1388
29	1411
29	1442
29	1502
29	1523
29	1638
29	1722
29	1781
29	1792
29	1794
29	1860
29	1905
29	1949
29	1966
29	1971
29	2049
29	2065
29	2094
29	2106
29	2217
29	2484
29	2502
29	2513
29	2598
29	2618
29	2721
29	2812
29	2868
29	2955
29	2991
29	3252
29	3472
29	3654
29	3762
29	3936
29	4039
29	4742
30	31
30	38
30	47
30	73
30	81
30	101
30	136
30	168
30	169
30	253
30	289
30	302
30	376
30	387
30	397
30	402
30	419
30	425
30	452
30	470
30	482
30	512
30	513
30	517
30	544
30	571
30	607
30	655
30	668
30	695
30	697
30	731
30	736
30	780
30	810
30	882
30	947
30	1016
30	1173
30	1184
30	1252
30	1257
30	1400
30	1423
30	1458
30	1466
30	1543
30	1585
30	1665
30	1784
30	1862
30	1896
30	2004
30	2005
30	2104
30	2296
30	2441
30	2609
30	2812
30	2861
30	3064
30	3065
30	3071
30	3079
30	3084
30	3103
30	3179
30	3334
30	3453
30	3610
30	3638
30	3715
30	3774
30	3804
30	4315
30	4322
30	4528
30	4558
31	63
31	76
31	92
31	267
31	276
31	343
31	421
31	578
31	660
31	1240
31	1412
31	1558
31	1561
31	1711
31	1787
31	1859
31	2565
31	2946
31	3833
31	4404
32	37
32	43
32	53
32	71
32	119
32	130
32	148
32	183
32	195
32	209
32	211
32	215
32	326
32	329
32	363
32	370
32	392
32	396
32	404
32	482
32	527
32	558
32	571
32	583
32	614
32	638
32	671
32	730
32	776
32	798
32	812
32	1009
32	1024
32	1113
32	1235
32	1326
32	1445
32	1504
32	1778
32	1782
32	1891
32	1910
32	1967
32	2048
32	2079
32	2153
32	2158
32	2220
32	2222
32	2429
32	2674
32	2828
32	2939
32	3093
32	3500
32	3667
32	3674
32	3686
32	3691
32	3880
32	3993
32	4064
32	4174
32	4175
32	4176
32	4254
32	4441
32	4487
32	4576
32	4652
32	4779
33	72
33	89
33	90
33	107
33	131
33	218
33	264
33	297
33	415
33	420
33	507
33	753
33	1233
33	1342
33	1355
33	1699
33	1817
33	1827
33	1991
33	2193
33	2229
33	2417
33	2515
33	2728
33	2823
33	2912
33	2993
33	3231
33	3460
33	3615
33	3976
33	4025
33	4463
33	4798
34	44
34	312
34	490
34	933
34	2136
34	2213
34	2701
34	2752
34	3230
35	65
35	69
35	70
35	100
35	105
35	120
35	174
35	189
35	226
35	248
35	325
35	356
35	373
35	489
35	491
35	629
35	736
35	886
35	908
35	977
35	1004
35	1034
35	1035
35	1041
35	1046
35	1061
35	1132
35	1199
35	1211
35	1288
35	1387
35	1540
35	1627
35	1662
35	1672
35	1824
35	1954
35	1969
35	2203
35	2288
35	2329
35	2359
35	2369
35	2458
35	2599
35	2870
35	3210
35	3433
35	3531
35	3602
35	3603
35	3830
35	3961
35	3979
35	4051
35	4239
35	4376
35	4395
35	4420
35	4421
35	4476
35	4834
35	4886
35	4908
36	80
36	101
36	313
36	355
36	462
36	610
36	936
36	941
36	1175
36	1178
36	1264
36	1539
36	1777
36	2055
36	2467
36	2554
36	2590
36	2623
36	2988
36	3010
36	3151
36	3175
36	3237
36	4333
36	4337
36	4352
36	4507
36	4617
36	4647
36	4923
37	107
37	116
37	204
37	227
37	354
37	462
37	476
37	576
37	625
37	676
37	726
37	828
37	840
37	844
37	887
37	1048
37	1142
37	1312
37	1438
37	1501
37	1787
37	1847
37	1891
37	1948
37	2018
37	2137
37	2476
37	2522
37	2761
37	2953
37	3098
37	3259
37	3368
37	3447
37	3456
37	3478
37	3991
37	4176
37	4179
37	4738
38	45
38	89
38	91
38	99
38	123
38	127
38	138
38	144
38	145
38	153
38	173
38	176
38	190
38	210
38	278
38	319
38	414
38	441
38	461
38	463
38	464
38	465
38	495
38	544
38	554
38	570
38	579
38	593
38	614
38	673
38	738
38	749
38	840
38	943
38	954
38	986
38	991
38	1005
38	1073
38	1092
38	1130
38	1193
38	1293
38	1330
38	1384
38	1490
38	1504
38	1549
38	1557
38	1703
38	1710
38	1730
38	1806
38	1858
38	1990
38	2189
38	2211
38	2370
38	2505
38	3053
38	3067
38	3115
38	3136
38	3142
38	3234
38	3294
38	3318
38	3430
38	3472
38	3594
38	3659
38	3859
38	3882
38	4165
38	4204
38	4297
38	4334
38	4399
38	4800
39	108
39	284
39	300
39	338
39	348
39	350
39	417
39	575
39	784
39	802
39	1049
39	1202
39	1251
39	1556
39	1867
39	1918
39	1995
39	2466
39	2728
39	2900
39	3016
39	3284
39	3861
39	3866
39	3889
39	4513
39	4736
39	4744
39	4785
40	67
40	87
40	90
40	105
40	107
40	144
40	173
40	182
40	198
40	199
40	205
40	218
40	222
40	284
40	287
40	298
40	361
40	402
40	425
40	448
40	485
40	511
40	549
40	562
40	600
40	701
40	736
40	773
40	802
40	820
40	827
40	830
40	915
40	920
40	934
40	972
40	1051
40	1104
40	1150
40	1191
40	1192
40	1241
40	1309
40	1344
40	1346
40	1373
40	1418
40	1422
40	1456
40	1463
40	1532
40	1573
40	1635
40	1682
40	1709
40	1735
40	1744
40	1780
40	1887
40	1890
40	1910
40	1935
40	2040
40	2102
40	2161
40	2168
40	2181
40	2271
40	2404
40	2413
40	2425
40	2467
40	2555
40	2642
40	2757
40	2838
40	2940
40	2984
40	2997
40	3008
40	3050
40	3167
40	3286
40	3329
40	3371
40	3425
40	3449
40	3618
40	4026
40	4036
40	4087
40	4164
40	4276
40	4309
40	4344
40	4704
40	4730
40	4855
40	4896
40	4908
40	4938
40	4944
41	80
41	85
41	167
41	190
41	245
41	250
41	333
41	375
41	583
41	633
41	796
41	1056
41	1278
41	1407
41	1485
41	1547
41	1797
41	2092
41	2103
41	2172
41	2583
41	3407
41	3412
41	3427
41	3545
41	3814
41	4029
41	4144
41	4197
41	4363
41	4407
41	4620
41	4678
41	4737
41	4774
41	4897
42	68
42	78
42	163
42	171
42	208
42	262
42	290
42	298
42	374
42	380
42	412
42	474
42	488
42	496
42	499
42	550
42	585
42	691
42	715
42	731
42	752
42	759
42	788
42	844
42	1151
42	1663
42	2012
42	2395
42	2500
42	2515
42	2718
42	2775
42	2830
42	2865
42	2994
42	3117
42	3391
42	3458
42	3529
42	3654
42	3775
42	3972
42	4193
42	4277
42	4428
43	54
43	103
43	155
43	282
43	344
43	786
43	1005
43	1512
43	1522
43	1930
43	2049
43	2071
43	2113
43	2272
43	2365
43	2647
43	2743
43	3481
43	3595
43	3627
43	3879
43	3882
43	4121
43	4321
43	4666
43	4778
43	4915
43	4961
44	57
44	94
44	112
44	126
44	148
44	166
44	177
44	201
44	240
44	243
44	256
44	285
44	322
44	350
44	355
44	375
44	425
44	454
44	527
44	559
44	691
44	745
44	778
44	783
44	796
44	943
44	946
44	985
44	1003
44	1017
44	1025
44	1269
44	1304
44	1430
44	1594
44	1640
44	1678
44	1763
44	1779
44	1899
44	1908
44	1951
44	2241
44	2505
44	2628
44	2674
44	2682
44	2787
44	2907
44	3163
44	3239
44	3251
44	3456
44	3535
44	3864
44	3908
44	4072
44	4152
44	4376
44	4390
44	4400
44	4432
44	4736
44	4952
45	49
45	52
45	64
45	89
45	90
45	98
45	106
45	110
45	112
45	115
45	135
45	140
45	145
45	151
45	161
45	180
45	188
45	199
45	225
45	239
45	258
45	260
45	279
45	316
45	326
45	358
45	377
45	440
45	447
45	456
45	459
45	470
45	492
45	496
45	514
45	529
45	538
45	589
45	593
45	599
45	605
45	685
45	777
45	795
45	809
45	814
45	849
45	889
45	943
45	1022
45	1036
45	1119
45	1125
45	1127
45	1137
45	1220
45	1229
45	1249
45	1315
45	1333
45	1398
45	1491
45	1502
45	1596
45	1629
45	1644
45	1779
45	1925
45	2001
45	2187
45	2319
45	2407
45	2468
45	2479
45	2480
45	2497
45	2635
45	2665
45	2778
45	2878
45	2916
45	2931
45	2954
45	2958
45	2992
45	3106
45	3204
45	3223
45	3227
45	3231
45	3241
45	3451
45	3481
45	3498
45	3512
45	3533
45	3612
45	3616
45	3629
45	3673
45	3683
45	3705
45	3749
45	3798
45	3809
45	3843
45	3862
45	3888
45	4053
45	4057
45	4106
45	4125
45	4160
45	4248
45	4261
45	4263
45	4270
45	4308
45	4414
45	4456
45	4487
45	4497
45	4505
45	4540
45	4656
45	4657
45	4690
45	4717
45	4804
45	4816
45	4946
46	82
46	101
46	105
46	133
46	181
46	197
46	200
46	279
46	336
46	364
46	426
46	454
46	457
46	484
46	547
46	771
46	792
46	896
46	1085
46	1151
46	1428
46	1479
46	1558
46	1598
46	1724
46	1841
46	1859
46	2305
46	2567
46	2621
46	3086
46	3132
46	3236
46	3316
46	3497
46	3937
46	3941
46	4204
46	4231
46	4388
46	4422
46	4547
47	53
47	62
47	82
47	180
47	221
47	482
47	962
47	1149
47	1305
47	1308
47	1310
47	1372
47	1434
47	1571
47	2106
47	2641
47	2939
47	3019
47	3282
47	3488
47	3750
47	4082
47	4517
47	4623
47	4823
47	4922
48	52
48	76
48	108
48	116
48	120
48	121
48	122
48	142
48	203
48	239
48	242
48	427
48	491
48	498
48	583
48	615
48	647
48	655
48	991
48	1054
48	1072
48	1104
48	1140
48	1303
48	1377
48	1435
48	1575
48	1589
48	1594
48	1669
48	1853
48	2001
48	2019
48	2114
48	2277
48	2309
48	2510
48	2569
48	2604
48	2846
48	3211
48	3487
48	3554
48	3582
48	3653
48	3797
48	4055
48	4801
48	4984
49	51
49	56
49	68
49	94
49	96
49	113
49	126
49	129
49	137
49	140
49	177
49	196
49	250
49	270
49	272
49	307
49	328
49	342
49	343
49	355
49	471
49	480
49	497
49	529
49	585
49	641
49	674
49	684
49	702
49	710
49	715
49	719
49	826
49	851
49	874
49	885
49	1107
49	1169
49	1174
49	1217
49	1273
49	1276
49	1292
49	1317
49	1329
49	1403
49	1491
49	1532
49	1656
49	1705
49	1769
49	1800
49	1864
49	2118
49	2243
49	2303
49	2324
49	2330
49	2341
49	2353
49	2404
49	2558
49	2567
49	2613
49	2804
49	2862
49	2894
49	2930
49	2967
49	2987
49	3055
49	3138
49	3151
49	3520
49	3813
49	4084
49	4176
49	4334
49	4414
49	4424
49	4588
49	4607
49	4728
49	4742
49	4955
50	134
50	328
50	384
50	444
50	512
50	538
50	573
50	626
50	693
50	808
50	822
50	1714
50	1715
50	1774
50	1953
50	2275
50	3349
50	3542
50	3647
50	4620
51	57
51	65
51	66
51	137
51	166
51	187
51	196
51	265
51	270
51	280
51	304
51	321
51	322
51	328
51	418
51	433
51	777
51	781
51	870
51	907
51	1023
51	1158
51	1314
51	1398
51	1567
51	1643
51	1645
51	1710
51	2156
51	2303
51	2323
51	2601
51	2602
51	2644
51	2685
51	2952
51	2964
51	2999
51	3136
51	3157
51	3246
51	3293
51	3595
51	3599
51	3828
51	3830
51	3922
51	4731
51	4772
51	4939
52	107
52	186
52	193
52	238
52	254
52	255
52	294
52	302
52	369
52	410
52	523
52	591
52	688
52	818
52	898
52	929
52	1019
52	1133
52	1230
52	1380
52	1416
52	1554
52	1606
52	1628
52	1694
52	1702
52	2098
52	2271
52	2285
52	2443
52	2470
52	2535
52	2573
52	2636
52	2783
52	3331
52	3695
52	3718
52	3729
52	3979
52	4003
52	4167
52	4425
52	4611
52	4672
53	59
53	118
53	136
53	189
53	636
53	673
53	677
53	1090
53	1152
53	1477
53	2176
53	2298
53	2324
53	2440
53	2443
53	2764
53	3377
53	3787
53	3827
53	3866
53	3931
53	4399
53	4790
54	58
54	112
54	141
54	149
54	158
54	212
54	242
54	244
54	251
54	327
54	385
54	393
54	399
54	453
54	532
54	533
54	562
54	574
54	606
54	609
54	621
54	641
54	660
54	669
54	689
54	727
54	810
54	1053
54	1100
54	1145
54	1163
54	1209
54	1245
54	1411
54	1430
54	1449
54	1555
54	1589
54	1611
54	1629
54	1664
54	1800
54	1863
54	1986
54	2040
54	2123
54	2143
54	2207
54	2279
54	2309
54	2441
54	2796
54	2851
54	2871
54	2883
54	2904
54	2983
54	3076
54	3155
54	3184
54	3191
54	3208
54	3296
54	3600
54	3633
54	3661
54	3765
54	3947
54	4068
54	4138
54	4168
54	4285
54	4406
54	4420
54	4584
54	4595
54	4676
54	4898
55	117
55	135
55	175
55	251
55	409
55	502
55	509
55	706
55	795
55	847
55	1040
55	1165
55	1166
55	1437
55	1565
55	1715
55	2505
55	2589
55	2602
55	2848
55	3006
55	3097
55	3098
55	3166
55	3301
55	3457
55	3527
55	3577
55	3582
55	3801
55	3820
55	3909
55	3914
55	4059
55	4360
55	4457
55	4465
55	4467
55	4983
56	67
56	73
56	100
56	122
56	132
56	172
56	207
56	209
56	223
56	224
56	263
56	265
56	270
56	276
56	326
56	341
56	424
56	467
56	531
56	574
56	600
56	664
56	687
56	783
56	811
56	877
56	933
56	957
56	1052
56	1180
56	1183
56	1197
56	1265
56	1393
56	1506
56	1531
56	1723
56	1770
56	1806
56	1865
56	2066
56	2270
56	2395
56	2466
56	2587
56	3024
56	3028
56	3289
56	3374
56	3424
56	3462
56	3507
56	3613
56	3743
56	3834
56	4269
56	4368
56	4708
56	4810
56	4869
56	4957
57	152
57	154
57	310
57	319
57	348
57	518
57	525
57	581
57	757
57	799
57	811
57	855
57	908
57	980
57	1287
57	1315
57	1595
57	1617
57	1639
57	1742
57	1849
57	1937
57	2071
57	2098
57	2208
57	2289
57	2429
57	2508
57	2814
57	2874
57	2916
57	3250
57	3509
57	3740
57	4006
57	4121
57	4169
57	4284
57	4560
57	4611
57	4707
57	4774
57	4803
58	63
58	104
58	164
58	170
58	212
58	244
58	268
58	327
58	358
58	432
58	596
58	632
58	1087
58	1139
58	1382
58	1424
58	1501
58	1938
58	1987
58	2495
58	3090
58	3522
58	3944
58	4035
59	91
59	148
59	291
59	398
59	489
59	533
59	622
59	844
59	971
59	1188
59	1209
59	1475
59	1483
59	1701
59	1993
59	2005
59	2351
59	2866
59	3032
59	3188
59	3483
59	3607
59	4020
59	4275
59	4302
60	69
60	78
60	119
60	126
60	176
60	193
60	207
60	217
60	256
60	293
60	299
60	301
60	316
60	345
60	367
60	380
60	445
60	469
60	502
60	554
60	560
60	594
60	644
60	646
60	658
60	661
60	730
60	923
60	1061
60	1129
60	1175
60	1336
60	1522
60	1550
60	1554
60	1674
60	1675
60	2045
60	2138
60	2270
60	2286
60	2469
60	2722
60	2760
60	2877
60	2919
60	2974
60	3026
60	3069
60	3109
60	3316
60	3456
60	3503
60	3613
60	3720
60	3742
60	3804
60	4055
60	4305
60	4398
60	4485
60	4629
60	4640
60	4679
60	4682
61	70
61	71
61	79
61	102
61	117
61	119
61	132
61	153
61	164
61	201
61	241
61	268
61	359
61	369
61	380
61	435
61	458
61	474
61	483
61	507
61	512
61	517
61	547
61	552
61	559
61	614
61	661
61	739
61	811
61	816
61	820
61	826
61	837
61	848
61	861
61	927
61	935
61	976
61	990
61	995
61	1025
61	1067
61	1084
61	1086
61	1091
61	1099
61	1116
61	1136
61	1163
61	1175
61	1198
61	1239
61	1354
61	1370
61	1432
61	1541
61	1559
61	1571
61	1576
61	1634
61	1702
61	1731
61	1732
61	1807
61	1813
61	1830
61	1900
61	1904
61	1909
61	1923
61	1942
61	1961
61	2096
61	2152
61	2377
61	2625
61	2635
61	2674
61	2803
61	2868
61	3034
61	3170
61	3198
61	3225
61	3335
61	3339
61	3493
61	3503
61	3527
61	3581
61	3642
61	3707
61	3793
61	3796
61	3898
61	4003
61	4197
61	4314
61	4437
61	4607
61	4638
61	4653
61	4668
61	4689
61	4702
61	4836
61	4859
62	63
62	66
62	165
62	185
62	249
62	346
62	366
62	388
62	418
62	491
62	494
62	522
62	602
62	619
62	676
62	799
62	897
62	1044
62	1078
62	1158
62	1172
62	1215
62	1450
62	1486
62	1497
62	1599
62	1610
62	1719
62	1737
62	1795
62	2112
62	2148
62	2313
62	2880
62	2921
62	3199
62	3310
62	3551
62	3561
62	3603
62	3907
62	3964
62	3991
62	4083
62	4340
62	4432
62	4749
63	119
63	235
63	296
63	389
63	454
63	586
63	790
63	837
63	955
63	1152
63	1358
63	1852
63	2080
63	2232
63	2282
63	2975
63	3261
63	3479
63	3562
63	4241
64	78
64	169
64	184
64	232
64	264
64	318
64	323
64	334
64	379
64	444
64	516
64	543
64	666
64	725
64	784
64	1299
64	1364
64	1402
64	1642
64	1852
64	2079
64	2097
64	2108
64	2258
64	2426
64	2597
64	2884
64	2917
64	3129
64	3559
64	3653
64	3754
64	3804
64	3842
64	3969
64	3972
64	4333
64	4509
64	4682
64	4838
65	166
65	178
65	220
65	276
65	427
65	434
65	559
65	577
65	616
65	868
65	1158
65	1514
65	1562
65	1653
65	1743
65	1761
65	1814
65	2175
65	2243
65	2605
65	2849
65	3067
65	3300
65	3335
65	3404
65	3441
65	3745
65	4482
65	4705
65	4914
66	72
66	141
66	167
66	241
66	319
66	329
66	337
66	345
66	378
66	572
66	604
66	630
66	682
66	912
66	982
66	1015
66	1090
66	1136
66	1186
66	1243
66	1250
66	1310
66	1461
66	1542
66	1575
66	1591
66	1698
66	1707
66	1709
66	1994
66	2009
66	2261
66	2289
66	2363
66	2493
66	2783
66	3395
66	3556
66	3722
66	4015
66	4085
66	4350
67	69
67	158
67	161
67	179
67	191
67	223
67	284
67	324
67	422
67	461
67	584
67	1074
67	1094
67	1280
67	1538
67	1932
67	2432
67	2671
67	2858
67	2863
67	2864
67	2967
67	3127
67	3447
67	3627
67	3821
67	3951
67	4521
67	4966
67	4971
68	82
68	99
68	109
68	138
68	139
68	301
68	316
68	480
68	508
68	580
68	700
68	757
68	871
68	890
68	901
68	1004
68	1069
68	1213
68	1326
68	1344
68	1434
68	1490
68	1553
68	1720
68	1748
68	1790
68	1921
68	2334
68	2843
68	2956
68	2957
68	3036
68	3603
68	3619
68	3917
68	4362
68	4412
68	4539
68	4571
68	4591
68	4755
68	4948
69	73
69	74
69	115
69	162
69	213
69	217
69	230
69	237
69	438
69	481
69	541
69	569
69	660
69	714
69	731
69	743
69	831
69	914
69	929
69	935
69	946
69	965
69	967
69	1084
69	1098
69	1119
69	1162
69	1204
69	1337
69	1632
69	1749
69	1782
69	1866
69	1868
69	1969
69	2133
69	2229
69	2259
69	2369
69	2579
69	2639
69	2961
69	3167
69	3247
69	3270
69	3435
69	3532
69	3716
69	3808
69	4071
69	4125
69	4376
69	4510
69	4593
69	4594
69	4832
70	90
70	176
70	197
70	203
70	329
70	349
70	372
70	415
70	448
70	520
70	1018
70	1087
70	1569
70	1631
70	1655
70	2036
70	2432
70	2699
70	2786
70	2931
70	3047
70	3287
70	3480
70	4401
70	4918
71	131
71	151
71	441
71	616
71	987
71	1094
71	1225
71	1583
71	1586
71	1751
71	2022
71	2473
71	2799
71	3708
71	4655
71	4801
71	4854
71	4934
72	88
72	99
72	122
72	160
72	204
72	306
72	360
72	407
72	504
72	573
72	650
72	653
72	659
72	696
72	713
72	729
72	768
72	956
72	1146
72	1281
72	1348
72	1416
72	1652
72	1728
72	1740
72	1797
72	1800
72	1983
72	1984
72	2094
72	2366
72	2524
72	2634
72	2698
72	3230
72	3295
72	3668
72	3711
72	3833
72	4031
72	4564
72	4934
73	84
73	97
73	100
73	109
73	114
73	115
73	117
73	119
73	127
73	149
73	150
73	235
73	291
73	320
73	330
73	366
73	386
73	413
73	449
73	502
73	521
73	558
73	569
73	673
73	798
73	934
73	1108
73	1195
73	1201
73	1216
73	1319
73	1371
73	1562
73	1704
73	1781
73	1798
73	1919
73	1927
73	1990
73	2020
73	2197
73	2357
73	2361
73	2494
73	2645
73	2855
73	3111
73	3193
73	3400
73	3620
73	3646
73	3735
73	3782
73	3948
73	3996
73	4056
73	4103
73	4152
73	4300
73	4423
73	4437
73	4492
73	4624
74	81
74	91
74	144
74	152
74	171
74	233
74	620
74	775
74	846
74	863
74	964
74	1018
74	1185
74	1331
74	2058
74	2114
74	2425
74	2565
74	2780
74	3295
74	3521
74	3967
74	4020
74	4061
74	4101
74	4191
74	4366
74	4686
74	4930
75	77
75	338
75	399
75	432
75	736
75	761
75	1057
75	1404
75	1601
75	1604
75	2206
75	2690
75	3376
75	3476
75	3495
75	3548
75	3672
76	85
76	134
76	234
76	245
76	286
76	310
76	400
76	428
76	487
76	592
76	772
76	807
76	810
76	861
76	867
76	895
76	910
76	1001
76	1077
76	1216
76	1222
76	1313
76	1340
76	1424
76	1558
76	1636
76	1835
76	1921
76	2052
76	2073
76	2274
76	2335
76	2421
76	2527
76	2546
76	2635
76	2981
76	3032
76	3067
76	3171
76	3277
76	3395
76	3507
76	3577
76	3753
76	3846
76	4021
76	4100
76	4366
76	4473
76	4661
76	4729
76	4812
76	4889
77	96
77	152
77	325
77	1751
77	1752
77	1977
77	2516
77	2712
77	4676
78	97
78	100
78	137
78	147
78	166
78	178
78	183
78	233
78	295
78	348
78	353
78	423
78	453
78	494
78	511
78	568
78	575
78	666
78	792
78	967
78	970
78	1031
78	1271
78	1300
78	1675
78	1733
78	1744
78	1980
78	1988
78	2061
78	2373
78	2420
78	2571
78	2737
78	2925
78	3289
78	3320
78	4582
78	4685
78	4905
79	93
79	304
79	401
79	591
79	699
79	789
79	882
79	916
79	1010
79	1374
79	1579
79	1945
79	2342
79	2693
79	3027
79	3196
79	3201
79	3592
79	4010
79	4561
80	97
80	137
80	143
80	149
80	156
80	159
80	349
80	498
80	541
80	555
80	695
80	720
80	910
80	925
80	953
80	1287
80	1405
80	1499
80	1585
80	1593
80	1627
80	1977
80	2011
80	2026
80	2100
80	2523
80	2571
80	3060
80	3167
80	3915
80	3968
80	4347
80	4436
81	82
81	104
81	118
81	140
81	181
81	210
81	310
81	336
81	360
81	391
81	412
81	414
81	439
81	472
81	571
81	574
81	721
81	747
81	947
81	982
81	1007
81	1065
81	1132
81	1202
81	1259
81	1617
81	1902
81	1990
81	2035
81	2136
81	2188
81	2368
81	2443
81	2699
81	2827
81	2943
81	3144
81	3175
81	3176
81	3355
81	3451
81	3654
81	3933
81	4933
81	4993
82	124
82	131
82	132
82	135
82	150
82	178
82	213
82	215
82	222
82	242
82	261
82	271
82	278
82	288
82	306
82	321
82	373
82	378
82	389
82	442
82	448
82	473
82	515
82	548
82	582
82	699
82	720
82	732
82	748
82	788
82	794
82	821
82	838
82	931
82	940
82	973
82	992
82	1024
82	1030
82	1062
82	1151
82	1164
82	1202
82	1234
82	1247
82	1250
82	1545
82	1617
82	1778
82	1933
82	2120
82	2137
82	2142
82	2265
82	2378
82	2416
82	2417
82	2433
82	2499
82	2628
82	2941
82	2980
82	3006
82	3027
82	3049
82	3060
82	3083
82	3178
82	3215
82	3270
82	3310
82	3331
82	3400
82	3495
82	4313
82	4714
82	4732
82	4909
83	112
83	354
83	567
83	797
83	841
83	897
83	922
83	1003
83	1106
83	1143
83	1355
83	1370
83	1578
83	1614
83	1911
83	1939
83	1986
83	2376
83	2722
83	2790
83	3456
83	3544
83	3995
83	4322
83	4682
84	123
84	125
84	127
84	631
84	922
84	966
84	1871
84	2242
84	2854
84	2992
84	3059
84	3569
84	3582
84	3679
84	3706
84	4110
84	4592
84	4721
85	94
85	128
85	308
85	323
85	483
85	549
85	624
85	627
85	696
85	872
85	948
85	1260
85	1326
85	1406
85	1507
85	1678
85	1804
85	1832
85	1845
85	2041
85	2163
85	2686
85	2821
85	2936
85	2990
85	3007
85	3164
85	3658
85	3933
85	3951
85	4104
85	4128
86	112
86	165
86	238
86	368
86	404
86	692
86	716
86	959
86	1090
86	1462
86	1570
86	1668
86	1708
86	2142
86	2213
86	2480
86	2485
86	2684
86	2742
86	2752
86	2951
86	3208
86	3232
86	3554
86	3590
86	3949
86	3982
86	4235
86	4405
87	96
87	127
87	157
87	194
87	208
87	241
87	403
87	526
87	880
87	1111
87	1256
87	1417
87	1498
87	1749
87	2518
87	3012
87	3552
87	3652
87	4326
87	4416
87	4450
87	4451
88	183
88	203
88	308
88	318
88	469
88	519
88	576
88	592
88	666
88	681
88	687
88	705
88	748
88	813
88	972
88	1251
88	1349
88	1355
88	1650
88	1900
88	2483
88	2824
88	3188
88	3192
88	3247
88	3309
88	3516
88	3579
88	4418
88	4763
88	4962
89	111
89	121
89	179
89	264
89	432
89	590
89	594
89	680
89	705
89	1361
89	1489
89	1818
89	1842
89	2252
89	2555
89	2650
89	2813
89	2996
89	3154
89	3179
89	3340
89	3385
89	3561
89	3650
89	3881
89	4162
89	4387
89	4456
89	4706
90	125
90	628
90	1320
90	1605
90	1612
90	2239
90	2337
90	4023
90	4602
91	99
91	262
91	308
91	447
91	623
91	750
91	783
91	880
91	977
91	1282
91	1390
91	1598
91	1614
91	2374
91	2462
91	2668
91	2701
91	2718
91	2935
91	2973
91	3024
91	3026
91	3201
91	3297
91	3624
91	3935
91	4608
91	4689
91	4785
91	4959
91	4966
92	129
92	143
92	179
92	353
92	492
92	566
92	598
92	603
92	804
92	848
92	903
92	906
92	977
92	1053
92	1064
92	1103
92	1263
92	1267
92	1687
92	1733
92	1845
92	1851
92	1856
92	2064
92	2085
92	2141
92	2226
92	2311
92	2327
92	2369
92	2556
92	2822
92	3021
92	3266
92	3439
92	3517
92	3531
92	3535
92	4264
92	4793
92	4855
92	4911
92	4939
93	145
93	259
93	858
93	905
93	957
93	1006
93	1061
93	1099
93	1121
93	1156
93	1189
93	1191
93	1253
93	1572
93	1601
93	1679
93	1902
93	1980
93	2514
93	2729
93	2971
93	3087
93	3153
93	3391
93	3424
93	3661
93	3752
93	4422
93	4713
93	4780
93	4867
93	4872
94	192
94	194
94	242
94	403
94	467
94	620
94	634
94	1431
94	1554
94	1614
94	1790
94	1894
94	2534
94	2789
94	2876
94	3014
94	3499
94	4299
94	4878
95	108
95	116
95	178
95	200
95	253
95	272
95	302
95	320
95	352
95	374
95	420
95	523
95	609
95	649
95	655
95	735
95	1154
95	1420
95	1712
95	1768
95	1960
95	1986
95	2456
95	2629
95	2633
95	2668
95	3686
95	3722
95	4034
95	4740
95	4942
96	156
96	290
96	332
96	377
96	508
96	639
96	646
96	808
96	1059
96	1184
96	1251
96	1385
96	1537
96	1562
96	1750
96	1922
96	2024
96	2040
96	2098
96	2112
96	2423
96	2638
96	2697
96	2756
96	2909
96	3115
96	3237
96	3308
96	3401
96	3448
96	4114
96	4243
96	4524
96	4674
96	4715
96	4822
96	4885
97	161
97	163
97	186
97	211
97	252
97	278
97	292
97	303
97	354
97	416
97	424
97	472
97	532
97	535
97	542
97	601
97	621
97	626
97	663
97	754
97	905
97	921
97	946
97	978
97	1025
97	1039
97	1083
97	1100
97	1123
97	1200
97	1268
97	1345
97	1413
97	1545
97	1680
97	1815
97	2040
97	2102
97	2147
97	2296
97	2569
97	3197
97	3372
97	3606
97	3609
97	3656
97	3674
97	4031
97	4172
97	4760
97	4896
97	4976
98	281
98	302
98	646
98	664
98	1544
98	1751
98	2213
98	2600
98	2893
98	3082
98	3354
98	3591
98	4500
99	130
99	1828
99	1949
99	2913
99	3026
99	4576
99	4951
99	4994
100	128
100	192
100	222
100	225
100	238
100	252
100	363
100	492
100	649
100	717
100	750
100	940
100	1030
100	1224
100	1332
100	1465
100	1493
100	1712
100	1819
100	1895
100	1941
100	2129
100	2186
100	2387
100	2486
100	2574
100	2683
100	2733
100	2776
100	2791
100	3092
100	3495
100	3743
100	3765
100	3768
100	4402
100	4979
101	108
101	136
101	159
101	260
101	298
101	323
101	376
101	382
101	386
101	419
101	453
101	502
101	509
101	539
101	649
101	657
101	743
101	760
101	766
101	776
101	816
101	824
101	900
101	924
101	1020
101	1025
101	1046
101	1166
101	1188
101	1198
101	1222
101	1229
101	1306
101	1361
101	1592
101	1608
101	1609
101	1616
101	1677
101	1724
101	1827
101	1915
101	1947
101	2064
101	2070
101	2124
101	2141
101	2223
101	2264
101	2281
101	2298
101	2531
101	2534
101	2537
101	2632
101	2712
101	2720
101	2752
101	2853
101	2865
101	2915
101	2955
101	3066
101	3173
101	3185
101	3187
101	3196
101	3368
101	3389
101	3597
101	3646
101	3731
101	3830
101	3871
101	3899
101	3930
101	4014
101	4075
101	4103
101	4386
101	4515
101	4615
101	4819
102	124
102	156
102	172
102	221
102	364
102	384
102	385
102	471
102	522
102	613
102	637
102	738
102	757
102	764
102	830
102	952
102	1099
102	1199
102	1353
102	1618
102	1623
102	1891
102	2254
102	2329
102	2881
102	3034
102	3318
102	3343
102	3413
102	3476
102	3637
102	3704
102	4047
102	4076
102	4085
102	4241
102	4480
102	4794
103	234
103	390
103	396
103	459
103	487
103	498
103	595
103	702
103	779
103	784
103	810
103	1463
103	1656
103	1690
103	1718
103	1958
103	2054
103	2406
103	2479
103	2537
103	2962
103	2973
103	3194
103	3864
103	4013
103	4502
103	4604
103	4824
103	4935
103	4983
104	126
104	151
104	216
104	263
104	318
104	396
104	405
104	407
104	469
104	479
104	521
104	658
104	779
104	812
104	833
104	859
104	875
104	913
104	1117
104	1211
104	1410
104	1454
104	1731
104	1765
104	1951
104	2084
104	2127
104	2135
104	2311
104	2406
104	2435
104	2519
104	2940
104	3022
104	3145
104	3405
104	3446
104	3510
104	3586
104	3625
104	3962
104	3986
104	4108
104	4122
104	4618
105	156
105	164
105	170
105	173
105	202
105	712
105	717
105	858
105	862
105	928
105	1295
105	1447
105	1488
105	1602
105	1741
105	2238
105	2601
105	2649
105	3128
105	3733
105	4108
105	4128
105	4272
105	4277
105	4348
105	4550
106	436
106	693
106	857
106	979
106	1292
106	2543
106	3028
106	3213
106	4210
106	4482
106	4613
107	243
107	267
107	315
107	398
107	433
107	439
107	478
107	1043
107	1080
107	2465
107	2786
107	2881
107	2984
107	3265
107	4386
107	4428
107	4737
108	143
108	395
108	406
108	440
108	654
108	678
108	742
108	744
108	800
108	804
108	844
108	944
108	1010
108	1156
108	1201
108	1212
108	1217
108	1414
108	1474
108	1477
108	1580
108	1668
108	1737
108	1927
108	1983
108	2013
108	2071
108	2298
108	2345
108	2450
108	2507
108	2639
108	2847
108	3334
108	3381
108	3412
108	3458
108	3584
108	3589
108	3682
108	3924
108	4154
108	4471
108	4849
109	236
109	308
109	323
109	382
109	645
109	893
109	1020
109	1089
109	1154
109	1298
109	1573
109	1877
109	2007
109	2385
109	2974
109	3159
109	3502
109	3516
109	3952
109	4215
109	4287
109	4365
110	154
110	435
110	801
110	1508
110	1810
110	1836
110	2058
110	2743
110	3046
110	3088
110	3168
110	3210
110	3331
110	3333
110	3383
110	3547
110	4133
110	4139
110	4274
111	117
111	146
111	163
111	220
111	304
111	344
111	411
111	462
111	610
111	647
111	690
111	692
111	916
111	1418
111	1626
111	1681
111	1803
111	1918
111	1972
111	2119
111	2182
111	2449
111	2498
111	2692
111	2828
111	2901
111	3865
111	4481
111	4546
111	4737
111	4777
112	878
112	1303
112	1739
112	3254
112	3928
113	115
113	133
113	159
113	227
113	269
113	359
113	406
113	466
113	520
113	592
113	678
113	700
113	864
113	869
113	898
113	1056
113	1218
113	1383
113	1467
113	2183
113	2557
113	2579
113	2605
113	2727
113	3198
113	4286
113	4802
113	4885
114	163
114	294
114	395
114	456
114	493
114	539
114	648
114	858
114	865
114	866
114	1015
114	1395
114	1535
114	1610
114	1738
114	1814
114	2095
114	2344
114	2453
114	3019
114	3364
114	4170
114	4415
114	4445
114	4745
114	4950
115	120
115	175
115	194
115	210
115	282
115	518
115	603
115	854
115	1108
115	1360
115	1518
115	2235
115	2549
115	2781
115	2934
115	3069
115	4427
115	4493
115	4680
115	4768
115	4789
115	4996
116	125
116	188
116	197
116	215
116	226
116	247
116	295
116	304
116	330
116	372
116	409
116	606
116	656
116	724
116	764
116	782
116	864
116	968
116	993
116	1093
116	1627
116	1884
116	2358
116	2699
116	2712
116	2850
116	3263
116	3398
116	3845
116	3902
116	4089
116	4196
116	4198
116	4273
116	4812
117	160
117	206
117	277
117	283
117	330
117	423
117	486
117	560
117	650
117	651
117	663
117	747
117	928
117	1060
117	1065
117	1208
117	1748
117	1893
117	1940
117	2093
117	2201
117	2380
117	2989
117	3037
117	3570
117	3746
117	3881
117	4501
117	4524
117	4575
117	4842
117	4973
118	153
118	155
118	164
118	195
118	260
118	266
118	412
118	430
118	447
118	549
118	598
118	608
118	926
118	1039
118	1107
118	1421
118	1448
118	1534
118	1667
118	1849
118	2801
118	2807
118	3158
118	3515
118	3591
118	3601
118	3718
118	3797
118	4065
118	4094
118	4151
118	4245
118	4289
118	4352
118	4462
118	4977
119	258
119	432
119	464
119	473
119	529
119	557
119	582
119	640
119	654
119	712
119	714
119	737
119	760
119	795
119	976
119	1009
119	1327
119	1435
119	1459
119	1547
119	1564
119	1658
119	1661
119	1742
119	2235
119	2292
119	2606
119	2760
119	2822
119	2830
119	2908
119	3091
119	3435
119	3593
119	3794
119	4070
119	4503
119	4554
119	4585
119	4637
119	4942
120	129
120	136
120	138
120	142
120	219
120	341
120	378
120	650
120	1075
120	1352
120	1672
120	1848
120	2748
120	4313
121	150
121	191
121	362
121	372
121	419
121	772
121	903
121	1147
121	1185
121	1207
121	1415
121	1429
121	1737
121	2028
121	2177
121	2336
121	2610
121	2751
121	2764
121	2771
121	2891
121	3134
121	3345
121	3363
121	3373
121	3420
121	3915
121	4605
121	4752
121	4894
122	124
122	139
122	170
122	197
122	212
122	229
122	236
122	253
122	279
122	288
122	309
122	332
122	379
122	409
122	446
122	605
122	674
122	695
122	743
122	862
122	868
122	925
122	992
122	1002
122	1026
122	1032
122	1127
122	1131
122	1166
122	1194
122	1248
122	1315
122	1319
122	1465
122	1479
122	1526
122	1539
122	1580
122	1696
122	1737
122	1739
122	1820
122	1850
122	1928
122	2051
122	2099
122	2182
122	2301
122	2323
122	2685
122	2778
122	2852
122	2869
122	3036
122	3099
122	3374
122	3457
122	3735
122	3857
122	3987
122	4039
122	4119
122	4144
122	4195
122	4260
122	4417
122	4427
122	4526
122	4549
122	4788
122	4866
122	4902
123	139
123	309
123	315
123	410
123	455
123	657
123	663
123	708
123	720
123	831
123	1011
123	1103
123	1227
123	1230
123	1472
123	1506
123	1557
123	1757
123	2017
123	2032
123	2109
123	2160
123	2328
123	3819
123	4188
123	4402
123	4489
123	4491
123	4559
123	4609
123	4630
123	4669
123	4828
124	201
124	215
124	480
124	551
124	599
124	678
124	904
124	1022
124	1273
124	2033
124	2116
124	2330
124	2483
124	2848
124	2960
124	3051
124	3135
124	3440
124	3791
124	3968
124	4067
124	4444
124	4569
125	165
125	178
125	187
125	240
125	245
125	248
125	278
125	384
125	522
125	844
125	1153
125	1427
125	1694
125	1971
125	2537
125	3286
125	3431
125	4583
126	184
126	191
126	212
126	468
126	567
126	710
126	789
126	807
126	817
126	845
126	1055
126	1235
126	1274
126	1894
126	1945
126	2995
126	3356
126	4025
126	4556
126	4857
127	141
127	231
127	237
127	300
127	320
127	510
127	590
127	753
127	808
127	846
127	907
127	932
127	949
127	1001
127	1408
127	1526
127	1660
127	2209
127	2434
127	2530
127	2718
127	3091
127	3367
127	3955
127	4304
127	4871
128	196
128	238
128	254
128	273
128	560
128	1034
128	1329
128	1983
128	2086
128	2447
128	2807
128	3316
128	4120
129	150
129	167
129	180
129	187
129	255
129	312
129	362
129	553
129	796
129	1111
129	1391
129	1619
129	2359
129	2528
129	2740
129	2798
129	2952
129	2979
129	3969
129	4282
129	4708
129	4944
130	421
130	1492
130	2312
130	2888
130	3521
130	4144
130	4603
131	177
131	243
131	295
131	349
131	353
131	364
131	977
131	1088
131	1161
131	1353
131	1931
131	2257
131	2577
131	2713
131	2799
131	3611
131	3979
131	4640
131	4800
132	288
132	300
132	747
132	1048
132	1226
132	1441
132	1450
132	1481
132	1961
132	2969
132	3046
132	3294
132	3316
132	3358
132	4094
133	173
133	748
133	771
133	1116
133	1250
133	1386
133	1422
133	1907
133	3390
133	3640
133	3876
133	4277
133	4317
134	228
134	1147
134	1173
134	1205
134	1399
134	2119
134	2449
134	2732
134	3250
134	3483
134	3730
134	3840
134	4598
134	4870
135	169
135	297
135	377
135	450
135	451
135	493
135	503
135	820
135	868
135	1164
135	1280
135	1649
135	1767
135	1928
135	2080
135	2315
135	2884
135	2984
135	3128
135	3218
135	3257
135	3352
135	3369
135	3493
135	3511
135	3653
135	3870
135	3930
135	4501
135	4644
135	4909
136	221
136	276
136	336
136	347
136	1397
136	1552
136	1920
136	2297
136	2908
136	2988
136	3202
136	3262
136	3498
136	3948
137	144
137	189
137	231
137	269
137	300
137	333
137	368
137	413
137	437
137	451
137	457
137	600
137	636
137	696
137	797
137	867
137	906
137	1042
137	1098
137	1160
137	1242
137	1261
137	1267
137	1378
137	1399
137	1708
137	1780
137	1840
137	1889
137	1988
137	2197
137	2578
137	2750
137	2796
137	2840
137	3034
137	3191
137	3211
137	3741
137	4003
137	4391
137	4898
138	245
138	265
138	1647
138	1821
138	2319
138	2662
138	3005
138	3431
139	209
139	227
139	265
139	350
139	437
139	510
139	562
139	635
139	756
139	783
139	878
139	996
139	1002
139	1055
139	1125
139	1215
139	1392
139	1462
139	1463
139	1552
139	1619
139	1649
139	1665
139	1812
139	1813
139	1835
139	1913
139	2038
139	2115
139	2317
139	2395
139	2579
139	2587
139	2642
139	2725
139	2746
139	2863
139	3027
139	3030
139	3092
139	3130
139	3277
139	3377
139	3511
139	3513
139	3641
139	3669
139	3694
139	4134
139	4244
139	4319
139	4462
139	4635
139	4737
139	4992
139	4995
140	158
140	205
140	224
140	409
140	654
140	671
140	697
140	752
140	917
140	1328
140	1636
140	2463
140	2561
140	2712
140	3091
140	3107
140	3728
140	3751
140	3848
140	3997
140	4102
140	4201
140	4301
141	150
141	263
141	346
141	417
141	535
141	600
141	653
141	741
141	748
141	808
141	958
141	1034
141	1152
141	1208
141	1337
141	1661
141	1954
141	2017
141	2295
141	2751
141	2913
141	3362
141	4194
141	4401
141	4632
142	198
142	216
142	358
142	371
142	408
142	417
142	556
142	661
142	674
142	803
142	833
142	948
142	1023
142	1086
142	1492
142	1728
142	1882
142	1953
142	2373
142	2477
142	2649
142	2745
142	2856
142	2872
142	3222
142	3366
142	4008
142	4207
142	4301
142	4801
143	227
143	248
143	281
143	333
143	342
143	399
143	411
143	498
143	557
143	598
143	602
143	617
143	677
143	749
143	909
143	1028
143	1236
143	1467
143	1470
143	1664
143	1666
143	2277
143	2278
143	2307
143	2328
143	2392
143	2543
143	2571
143	2709
143	2907
143	2932
143	3072
143	3081
143	3116
143	3160
143	3221
143	3369
143	3665
143	4039
143	4143
143	4540
144	299
144	354
144	469
144	636
144	1003
144	1075
144	1227
144	1338
144	1414
144	1521
144	1704
144	2198
144	2453
144	2508
144	2608
144	2635
144	2700
144	2803
144	3942
145	174
145	186
145	281
145	337
145	551
145	630
145	1115
145	1272
145	1772
145	3114
145	3315
145	3373
145	3434
145	3502
145	4574
145	4926
146	158
146	191
146	237
146	251
146	262
146	283
146	325
146	474
146	509
146	653
146	663
146	675
146	724
146	784
146	805
146	806
146	854
146	871
146	898
146	1012
146	1290
146	1348
146	1525
146	1614
146	1624
146	1710
146	1747
146	2025
146	2181
146	2207
146	2261
146	2276
146	2418
146	2501
146	2562
146	2710
146	2734
146	2772
146	2847
146	2924
146	3140
146	3963
146	4009
146	4473
146	4557
146	4879
146	4891
146	4964
147	169
147	429
147	635
147	762
147	865
147	1187
147	1405
147	1538
147	1854
147	2134
147	2246
147	4256
147	4474
147	4553
147	4732
148	153
148	160
148	185
148	271
148	296
148	317
148	322
148	352
148	371
148	496
148	535
148	738
148	851
148	913
148	964
148	973
148	1060
148	1173
148	1295
148	1354
148	1365
148	1439
148	1598
148	1651
148	1690
148	1767
148	1808
148	1822
148	1830
148	1844
148	2017
148	2107
148	2167
148	2332
148	2775
148	2856
148	3021
148	3048
148	3280
148	3653
148	3700
148	4255
148	4381
148	4427
148	4643
148	4873
148	4887
148	4978
149	185
149	225
149	287
149	390
149	1134
149	1459
149	1480
149	1674
149	1815
149	2756
149	3107
149	3417
149	3639
149	3706
149	4375
149	4911
150	156
150	608
150	931
150	2374
150	2784
150	2957
150	3039
150	3071
150	3791
150	4513
151	232
151	261
151	268
151	293
151	311
151	400
151	550
151	566
151	578
151	626
151	730
151	753
151	758
151	933
151	1164
151	1197
151	1266
151	1544
151	1774
151	1851
151	2139
151	2150
151	2241
151	2408
151	2438
151	2652
151	2816
151	3160
151	3196
151	3253
151	3296
151	3611
151	3617
151	3742
151	4044
151	4050
151	4282
151	4341
151	4607
151	4767
151	4835
152	162
152	334
152	392
152	415
152	728
152	827
152	932
152	1099
152	1181
152	1258
152	1334
152	1744
152	1803
152	1845
152	2126
152	2428
152	3621
152	4250
153	260
153	353
153	956
153	1551
153	1637
153	2337
153	3197
153	3567
153	3874
153	4059
153	4096
153	4123
153	4255
153	4267
153	4318
153	4352
154	246
154	249
154	649
154	1198
154	1566
154	1629
154	1963
154	2046
154	2177
154	2428
154	2919
154	3155
154	3879
154	4249
154	4404
154	4700
154	4798
155	251
155	291
155	365
155	409
155	536
155	557
155	994
155	1123
155	1246
155	1495
155	1522
155	1586
155	1676
155	1850
155	1887
155	1966
155	2253
155	2285
155	2650
155	2828
155	3108
155	3420
155	3527
155	3593
155	3727
155	3756
155	3909
155	3928
155	4347
155	4487
155	4623
155	4783
155	4906
156	180
156	257
156	259
156	299
156	389
156	514
156	548
156	1397
156	1399
156	2151
156	2672
156	3003
156	3307
156	3601
156	4084
156	4286
157	160
157	285
157	341
157	395
157	400
157	475
157	491
157	495
157	628
157	638
157	700
157	846
157	1070
157	1359
157	1386
157	1620
157	1822
157	1862
157	1878
157	1879
157	1998
157	2235
157	2363
157	2662
157	3659
157	4301
158	232
158	377
158	593
158	684
158	801
158	1188
158	1694
158	1981
158	2041
158	2078
158	2969
158	3224
158	3518
158	4035
158	4080
158	4399
158	4412
158	4446
158	4979
159	199
159	221
159	367
159	711
159	718
159	954
159	995
159	1923
159	3293
159	3387
159	3643
159	4147
160	165
160	206
160	228
160	260
160	310
160	451
160	523
160	545
160	563
160	680
160	765
160	814
160	936
160	1074
160	1299
160	1519
160	1590
160	1756
160	1852
160	2316
160	2319
160	2421
160	2707
160	2911
160	2993
160	3000
160	3152
160	3283
160	3581
160	4562
160	4578
161	176
161	198
161	222
161	234
161	315
161	786
161	1077
161	1153
161	1514
161	1595
161	1604
161	1710
161	1942
161	1993
161	2557
161	2574
161	2834
161	2935
161	3001
161	3046
161	3244
161	3308
161	3973
161	4081
161	4220
162	239
162	455
162	476
162	494
162	595
162	645
162	756
162	892
162	1068
162	1138
162	1215
162	1799
162	2902
162	4431
162	4492
162	4521
162	4959
162	4991
163	177
163	341
163	852
163	1134
163	1329
163	2375
163	2897
163	3594
163	3969
163	4212
164	394
164	466
164	656
164	865
164	899
164	959
164	1444
164	1511
164	1695
164	1831
164	2051
164	2162
164	3040
164	3069
164	3221
164	3608
164	3625
164	3891
164	4135
165	348
165	439
165	471
165	539
165	553
165	855
165	874
165	909
165	1023
165	1244
165	1401
165	1508
165	1610
165	1634
165	2471
165	2627
165	2955
166	177
166	250
166	307
166	465
166	580
166	639
166	685
166	705
166	800
166	867
166	1218
166	1228
166	1360
166	1493
166	1581
166	1861
166	1974
166	2205
166	2559
166	3170
166	3297
166	3774
166	3884
166	3904
166	4466
166	4481
166	4631
166	4679
166	4838
166	4985
167	227
167	249
167	266
167	312
167	483
167	535
167	830
167	853
167	941
167	963
167	993
167	1130
167	1240
167	1364
167	1668
167	1775
167	2384
167	2503
167	2561
167	2839
167	2938
167	3216
167	3455
167	4171
167	4511
167	4533
167	4750
168	410
168	426
168	611
168	934
168	1024
168	1131
168	1310
168	1583
168	1599
168	1823
168	2244
168	2360
168	2551
168	2630
168	2652
168	2935
168	3020
168	3098
168	3191
168	3208
168	3290
168	3719
168	4112
168	4171
169	188
169	274
169	397
169	430
169	607
169	4523
170	314
170	315
170	482
170	501
170	509
170	694
170	832
170	848
170	933
170	1052
170	1071
170	1226
170	1377
170	1550
170	2003
170	2135
170	2217
170	2494
170	2704
170	2907
170	3395
170	3477
170	3578
170	3656
170	3854
170	4075
170	4729
170	4737
170	4746
170	4773
171	202
171	206
171	526
171	540
171	1744
171	1862
171	1956
171	2280
171	2314
171	2329
171	2514
171	3324
171	3360
171	3584
171	3840
171	4187
171	4449
171	4477
172	226
172	546
172	891
172	980
172	1160
172	1179
172	1240
172	1301
172	1392
172	1412
172	1925
172	1998
172	3500
172	4344
172	4365
172	4628
172	4821
173	191
173	209
173	233
173	249
173	300
173	361
173	418
173	526
173	641
173	777
173	1062
173	1153
173	1405
173	1433
173	1460
173	1646
173	1697
173	2002
173	2270
173	2302
173	2347
173	2498
173	2736
173	2833
173	3032
173	3325
173	3390
173	3608
173	4631
173	4754
174	218
174	257
174	258
174	303
174	375
174	473
174	477
174	579
174	672
174	681
174	757
174	785
174	860
174	941
174	968
174	1005
174	1200
174	1506
174	1591
174	1647
174	1654
174	1789
174	1940
174	1945
174	1978
174	2148
174	2243
174	2522
174	2840
174	3008
174	3109
174	3150
174	3670
174	3707
174	4493
174	4858
175	391
175	837
175	1232
175	1790
175	1809
175	2116
175	2125
175	2282
175	2304
175	2320
175	2589
175	2757
175	3048
175	3794
176	257
176	299
176	386
176	613
176	655
176	662
176	669
176	720
176	794
176	814
176	845
176	926
176	956
176	1023
176	1060
176	1098
176	1181
176	1564
176	1766
176	1934
176	2096
176	2160
176	2216
176	2622
176	2659
176	2727
176	2744
176	2828
176	2926
176	3065
176	3269
176	3320
176	3440
176	3816
176	4142
176	4210
176	4333
176	4560
176	4766
177	442
177	1230
177	2032
177	2929
177	3406
177	4030
177	4965
178	238
178	303
178	414
178	545
178	688
178	836
178	1011
178	1245
178	1417
178	1543
178	2157
178	2679
178	2899
178	3007
178	3412
178	3621
178	4134
179	274
179	283
179	700
179	709
179	1079
179	1116
179	1222
179	1307
179	1556
179	1807
179	2027
179	2689
179	2937
179	3052
179	3977
179	4294
179	4300
180	204
180	292
180	314
180	390
180	426
180	640
180	669
180	675
180	806
180	1200
180	1563
180	2677
180	3265
180	4411
180	4746
181	285
181	726
181	964
181	1010
181	1144
181	1284
181	2510
181	2738
181	2774
181	3077
181	4979
182	230
182	529
182	544
182	711
182	717
182	1066
182	1314
182	1362
182	1439
182	1454
182	1508
182	1536
182	1803
182	1902
182	2069
182	2339
182	2491
182	2795
182	3438
182	3481
182	3731
182	3915
182	4543
182	4871
183	313
183	317
183	410
183	506
183	515
183	536
183	1157
183	1289
183	1462
183	1638
183	1698
183	1819
183	2006
183	2171
183	2444
183	2464
183	2724
183	2890
183	2968
183	3018
183	3118
183	3174
183	3313
183	3323
183	3550
183	4041
184	339
184	504
184	594
184	823
184	979
184	1018
184	1458
184	1646
184	1992
184	2530
184	2536
184	2663
184	2808
184	2865
184	3378
184	3506
184	4337
184	4684
184	4890
185	237
185	244
185	504
185	660
185	689
185	931
185	1176
185	1184
185	1215
185	1254
185	1616
185	1808
185	2016
185	2097
185	2442
185	2766
185	2895
185	3269
185	3419
185	3748
185	4573
185	4603
186	230
186	259
186	275
186	362
186	532
186	624
186	831
186	1067
186	1465
186	1527
186	1612
186	1741
186	1831
186	1945
186	2088
186	2092
186	4109
186	4425
186	4633
186	4960
187	220
187	225
187	270
187	392
187	745
187	758
187	1147
187	1361
187	1395
187	1494
187	1742
187	1757
187	1925
187	1993
187	2153
187	2392
187	2898
187	3054
187	3256
187	4087
187	4234
187	4550
187	4795
187	4919
187	4927
188	271
188	327
188	363
188	381
188	430
188	463
188	692
188	755
188	828
188	843
188	867
188	1085
188	1126
188	1343
188	1348
188	1367
188	1396
188	1425
188	1478
188	1649
188	1677
188	1741
188	2044
188	2120
188	2249
188	2301
188	2545
188	2625
188	2643
188	3029
188	3058
188	3106
188	3235
188	3374
188	3405
188	3428
188	3822
188	3910
188	4128
188	4590
188	4663
188	4874
189	281
189	293
189	337
189	374
189	437
189	484
189	537
189	571
189	733
189	1318
189	1430
189	1599
189	1747
189	2215
189	2255
189	2576
189	3094
189	3595
189	3782
189	3853
189	3857
189	3964
189	4087
189	4358
190	256
190	279
190	282
190	287
190	299
190	317
190	350
190	492
190	744
190	769
190	998
190	1055
190	1101
190	1486
190	1502
190	1872
190	1882
190	1885
190	1970
190	1976
190	2034
190	2059
190	2218
190	2674
190	2716
190	2741
190	2765
190	3380
190	3392
190	3414
190	3650
190	3986
190	4375
190	4421
190	4581
190	4622
190	4679
190	4803
190	4982
191	221
191	586
191	927
191	938
191	959
191	1378
191	2056
191	2454
191	3341
191	4443
191	4822
192	200
192	271
192	273
192	280
192	684
192	704
192	761
192	838
192	867
192	964
192	997
192	1021
192	1068
192	1080
192	1091
192	1411
192	1734
192	1772
192	2006
192	2171
192	2352
192	2509
192	2559
192	2698
192	2772
192	2779
192	2881
192	2900
192	3022
192	3199
192	3265
192	3338
192	3468
192	3706
192	3864
192	4355
192	4672
192	4730
192	4848
192	4916
193	235
193	286
193	630
193	634
193	3578
193	3605
193	4038
194	334
194	560
194	637
194	773
194	797
194	923
194	936
194	972
194	1139
194	1312
194	1403
194	1833
194	2034
194	2180
194	2321
194	2760
194	2888
194	2889
194	3231
194	3296
194	3550
194	4723
194	4894
195	236
195	485
195	767
195	798
195	820
195	1213
195	1600
195	2114
195	3236
196	248
196	271
196	528
196	530
196	698
196	1104
196	1683
196	1693
196	1943
196	2806
196	4205
196	4222
196	4544
197	394
197	500
197	850
197	890
197	903
197	927
197	1069
197	1170
197	1344
197	1410
197	1595
197	1809
197	1890
197	1919
197	2036
197	2204
197	2675
197	3339
197	3453
197	3909
197	4021
197	4191
198	205
198	223
198	310
198	380
198	406
198	430
198	438
198	502
198	603
198	646
198	712
198	718
198	774
198	778
198	896
198	1009
198	1043
198	1054
198	1191
198	1304
198	1372
198	1482
198	1504
198	1541
198	1563
198	1748
198	1776
198	2315
198	2367
198	2465
198	2474
198	2736
198	2767
198	2768
198	2811
198	3045
198	3071
198	3294
198	3772
198	3786
198	3898
198	4313
198	4343
198	4648
199	336
199	1217
199	2612
199	2744
199	2862
199	3470
199	4255
199	4308
200	987
200	2782
200	3216
200	3554
200	3622
200	4151
201	370
201	580
201	807
201	1141
201	1524
201	1657
201	1716
201	2412
201	3285
201	3628
201	3919
201	3960
201	4721
202	216
202	239
202	290
202	335
202	821
202	914
202	963
202	1083
202	1473
202	1577
202	1580
202	2321
202	2461
203	208
203	212
203	303
203	450
203	484
203	540
203	546
203	597
203	609
203	620
203	639
203	750
203	752
203	755
203	763
203	790
203	859
203	1030
203	1140
203	1158
203	1284
203	1468
203	1531
203	1549
203	1612
203	1694
203	1782
203	1794
203	1865
203	1871
203	1948
203	1990
203	2129
203	2245
203	2246
203	2315
203	2690
203	2708
203	3322
203	3437
203	3969
203	4181
203	4276
203	4562
203	4725
204	228
204	635
204	969
204	985
204	1167
204	1186
204	1362
204	1524
204	2056
204	2136
204	2283
204	2352
204	2435
204	2445
204	2692
204	3453
204	3744
204	3916
204	4180
204	4299
205	219
205	275
205	443
205	501
205	548
205	553
205	766
205	871
205	1038
205	1138
205	1335
205	1485
205	1530
205	2023
205	2297
205	3229
205	3310
205	3799
205	3803
205	3806
205	4152
205	4216
205	4237
205	4510
205	4541
206	255
206	476
206	588
206	697
206	920
206	965
206	1016
206	1103
206	1274
206	1297
206	2111
206	2386
206	2389
206	2507
206	2769
206	2835
206	2864
206	2949
206	3052
206	3164
206	3549
206	3571
206	3579
206	3687
206	3841
206	4087
206	4124
206	4148
206	4289
206	4770
207	223
207	507
207	524
207	667
207	679
207	714
207	821
207	882
207	1935
207	2077
207	2195
207	2717
207	3501
207	3691
207	3721
207	4383
208	234
208	309
208	412
208	1032
208	1911
208	2066
208	2124
208	3108
208	3617
208	3646
208	4627
209	311
209	387
209	448
209	517
209	678
209	793
209	1053
209	1152
209	1180
209	1742
209	2223
210	224
210	247
210	367
210	376
210	416
210	566
210	719
210	1038
210	1074
210	1465
210	1777
210	1951
210	1985
210	2125
210	2703
210	2938
210	3214
210	3262
210	3521
210	3543
210	3824
210	3920
210	4031
210	4510
210	4594
210	4892
211	338
211	568
211	615
211	859
211	863
211	3496
211	3651
211	3696
211	4384
211	4914
212	218
212	289
212	331
212	333
212	356
212	393
212	759
212	1086
212	1244
212	1491
212	1589
212	1651
212	1801
212	2038
212	2365
212	2925
212	3639
212	4048
212	4154
212	4568
212	4876
213	321
213	540
213	748
213	835
213	878
213	1333
213	1432
213	1456
213	1521
213	1558
213	1877
213	2036
213	2060
213	2713
213	2892
213	2906
213	3161
213	3264
213	3332
213	3555
213	3625
213	4203
214	304
214	900
214	1057
214	1113
214	2073
214	2098
214	2284
214	2807
214	3394
214	3738
214	3813
214	4586
215	495
215	555
215	1617
215	2164
215	2548
215	2717
215	3493
216	624
216	2124
216	2189
216	2648
216	4360
216	4572
217	413
217	1216
217	1368
217	1380
217	1441
217	1525
217	1666
217	2029
217	2253
217	3037
217	3606
217	3869
217	4322
218	273
218	325
218	499
218	552
218	626
218	778
218	829
218	832
218	1036
218	1058
218	1070
218	1262
218	1570
218	1774
218	2024
218	2275
218	2722
218	3694
218	3760
218	3812
218	4357
219	318
219	340
219	643
219	726
219	919
219	1130
219	1229
219	1391
219	1748
219	1989
219	2452
219	3153
219	3681
220	306
220	351
220	357
220	876
220	1020
220	1299
220	1308
220	1313
220	1345
220	1351
220	1423
220	1992
220	2321
220	2456
220	2546
220	2611
220	2719
220	2761
220	3298
220	3522
220	3560
220	3769
220	3899
220	3919
220	4200
221	441
221	456
221	475
221	888
221	1066
221	1081
221	1259
221	1482
221	1683
221	1807
221	1885
221	2529
221	2581
221	2759
221	3181
221	3513
221	3968
222	233
222	468
222	662
222	815
222	999
222	2934
222	4453
222	4601
223	228
223	364
223	500
223	568
223	971
223	1014
223	1062
223	1167
223	1521
223	1583
223	1615
223	1690
223	1740
223	1937
223	2081
223	2880
223	2985
223	3055
224	250
224	388
224	542
224	589
224	599
224	688
224	1067
224	1133
224	1255
224	1301
224	1312
224	1339
224	1583
224	1648
224	2122
224	2539
224	2739
224	2927
224	2982
224	3555
224	3671
224	4321
224	4705
224	4880
225	246
225	592
225	965
225	1058
225	1203
225	1262
225	1738
225	2107
225	2388
225	2527
225	4600
225	4611
226	228
226	816
226	1301
226	1332
226	2252
226	2334
226	2624
226	2633
226	3581
226	3822
226	4562
227	393
227	463
227	483
227	745
227	781
227	1490
227	1722
227	1756
227	1761
227	2377
227	2535
227	2738
227	2739
227	3029
227	4421
227	4571
228	236
228	399
228	494
228	585
228	817
228	819
228	833
228	1176
228	1618
228	1694
228	1714
228	1733
228	1746
228	1934
228	2050
228	2088
228	2468
228	2707
228	3105
228	3354
228	4182
228	4381
228	4748
228	4806
229	277
229	383
229	391
229	418
229	439
229	458
229	493
229	507
229	586
229	604
229	612
229	761
229	771
229	860
229	926
229	1100
229	1136
229	1165
229	1295
229	1357
229	1467
229	1595
229	1897
229	2543
229	2597
229	2837
229	3137
229	3585
229	3785
229	3863
229	4457
229	4482
229	4491
229	4652
230	280
230	524
230	1148
230	2511
230	2640
230	2702
231	393
231	714
231	936
231	1244
231	2024
231	2469
231	2992
231	2998
231	3371
232	286
232	291
232	683
232	1051
232	1448
232	1462
232	2065
232	2363
232	2459
232	2568
232	2619
232	3228
232	3366
232	3687
232	4017
232	4403
232	4697
232	4756
232	4854
233	311
233	344
233	349
233	395
233	476
233	551
233	625
233	631
233	853
233	982
233	1098
233	1379
233	1405
233	1446
233	1754
233	2156
233	2620
233	2854
233	2966
233	3210
233	3562
233	3920
233	4492
233	4582
234	253
234	292
234	577
234	610
234	673
234	856
234	1040
234	1043
234	1226
234	1369
234	1496
234	1904
234	2192
234	2199
234	2949
234	3848
234	4546
234	4743
235	326
235	364
235	1132
235	1264
235	1597
235	1631
235	1922
235	2168
235	2306
235	3212
235	3482
235	3501
235	3528
235	3641
235	4180
236	241
236	296
236	547
236	950
236	1016
236	1141
236	1278
236	1413
236	1532
236	1567
236	1644
236	1774
236	1832
236	2076
236	2110
236	2153
236	2532
236	2618
236	2749
236	3013
236	3231
236	4111
236	4919
237	438
237	826
237	1038
237	1064
237	1134
237	1202
237	1326
237	1477
237	1480
237	1548
237	1556
237	1807
237	1811
237	2466
237	2997
237	3073
237	3172
237	3409
237	3666
237	3912
237	3935
237	4377
237	4556
237	4921
237	4945
238	366
238	391
238	426
238	488
238	1063
238	1172
238	2044
238	2599
238	2820
238	3038
238	3068
238	3468
238	4540
239	314
239	519
239	565
239	727
239	907
239	1400
239	1492
239	3101
239	4140
239	4807
240	314
240	389
240	479
240	481
240	871
240	1466
240	1536
240	1669
240	2137
240	2402
240	2728
240	3443
240	3451
240	3463
240	3523
240	3598
240	4042
240	4165
240	4312
241	289
241	477
241	530
241	654
241	950
241	1178
241	1342
241	2298
241	2822
241	2823
241	3778
241	3967
241	4064
241	4657
241	4711
241	4944
242	334
242	428
242	449
242	480
242	1302
242	1499
242	1508
242	1890
242	2090
242	2554
242	2630
242	2739
242	2922
242	3739
242	4304
242	4381
243	346
243	608
243	613
243	762
243	778
243	1133
243	1270
243	1366
243	1678
243	1989
243	2718
243	2747
243	3046
243	3148
243	3655
243	3760
243	4251
243	4472
244	277
244	675
244	906
244	962
244	979
244	991
244	1042
244	1756
244	2085
244	3933
244	4471
244	4794
245	257
245	415
245	1059
245	2227
245	2758
245	4844
246	496
246	504
246	553
246	588
246	809
246	850
246	862
246	1116
246	1216
246	1274
246	1678
246	1806
246	1833
246	1870
246	1955
246	1998
246	2014
246	2022
246	2134
246	2405
246	2759
246	2808
246	2856
246	2915
246	3012
246	3997
246	4020
246	4169
246	4338
246	4417
247	305
247	397
247	868
247	1259
247	1352
247	2152
247	2888
247	3225
247	3607
247	4262
247	4405
248	348
248	443
248	477
248	647
248	667
248	746
248	947
248	1037
248	1238
248	1257
248	1541
248	1602
248	1634
248	1984
248	2245
248	2401
248	2679
248	2885
248	3558
248	3622
248	3862
248	3914
248	4380
249	262
249	278
249	342
249	358
249	397
249	477
249	545
249	607
249	791
249	848
249	963
249	1232
249	1389
249	1410
249	1708
249	1799
249	2207
249	2355
249	2629
249	2992
249	3406
249	4317
249	4376
249	4452
250	288
250	412
250	429
250	436
250	438
250	452
250	466
250	536
250	568
250	570
250	601
250	625
250	633
250	708
250	728
250	842
250	869
250	894
250	915
250	1018
250	1033
250	1120
250	1339
250	1341
250	1376
250	1417
250	1577
250	1625
250	1783
250	1941
250	2008
250	2087
250	2339
250	2431
250	2442
250	2579
250	2586
250	2677
250	2845
250	3086
250	3161
250	3412
250	3495
250	3645
250	3715
250	3785
250	3931
250	3970
250	4366
250	4853
250	4887
250	4948
251	324
251	345
251	373
251	513
251	541
251	599
251	668
251	728
251	1181
251	1319
251	1538
251	1755
251	3031
251	3181
251	3215
251	4240
251	4700
251	4824
252	279
252	336
252	368
252	858
252	1300
252	1495
252	1666
252	1881
252	2444
252	3392
252	4134
252	4316
252	4545
253	303
253	763
253	1294
253	1307
253	1443
253	1796
253	2042
253	2688
253	3743
253	4196
254	340
254	433
254	604
254	740
254	1027
254	2380
254	2784
254	4541
255	924
255	1256
255	1264
255	1537
255	1735
255	1845
255	2082
255	2150
255	2937
255	3142
255	3144
255	3371
255	3624
255	3682
255	3693
255	3921
255	3962
255	4445
255	4850
256	272
256	333
256	390
256	643
256	770
256	851
256	952
256	990
256	1005
256	1049
256	1349
256	1528
256	1696
256	1765
256	1826
256	1948
256	2238
256	2269
256	2422
256	2436
256	2508
256	2769
256	2777
256	2845
256	3480
256	3730
256	3818
256	3830
256	4383
256	4579
256	4619
256	4701
257	452
257	548
257	591
257	785
257	1011
257	1040
257	1087
257	1214
257	1464
257	1500
257	1576
257	1660
257	1770
257	1860
257	1966
257	2106
257	2118
257	2273
257	2407
257	2419
257	2478
257	2655
257	2832
257	3123
257	3275
257	3288
257	4090
257	4150
257	4606
257	4723
257	4759
258	731
258	989
258	1079
258	1157
258	1197
258	1208
258	1225
258	1247
258	1516
258	1540
258	1641
258	1870
258	2038
258	2408
258	2487
258	2525
258	2663
258	2817
258	2818
258	2967
258	2991
258	3204
258	3669
258	3839
258	3903
258	3917
258	4042
258	4294
258	4867
258	4881
259	292
259	503
259	761
259	1092
259	1159
259	1280
259	1383
259	1487
259	1707
259	1855
259	2422
259	2475
259	2476
259	2489
259	2495
259	2714
259	3001
259	3350
259	4066
259	4158
259	4512
259	4726
259	4787
260	277
260	328
260	360
260	630
260	733
260	776
260	1116
260	1244
260	1272
260	1523
260	1631
260	1856
260	1913
260	2422
260	2589
260	3336
260	3483
260	3576
260	3661
260	4084
260	4118
260	4358
260	4398
260	4890
261	328
261	471
261	644
261	648
261	705
261	792
261	975
261	1037
261	1239
261	1507
261	1621
261	2835
261	3337
261	3840
261	3941
261	4017
261	4225
261	4774
261	4795
261	4879
262	423
262	512
262	578
262	654
262	713
262	884
262	1053
262	1097
262	1684
262	1706
262	2033
262	2138
262	2263
262	2319
262	2451
262	2485
262	2590
262	2703
262	2917
262	2967
262	3096
262	3169
262	3640
262	3744
262	4094
262	4143
262	4573
263	329
263	334
263	388
263	401
263	515
263	763
263	1302
263	1415
263	1605
263	1626
263	2407
263	2624
263	2651
263	3102
263	3320
263	3809
263	4032
263	4852
264	434
264	478
264	558
264	909
264	1190
264	2023
264	2607
264	2876
264	3148
264	3644
264	4520
265	464
265	780
265	958
265	1041
265	1437
265	1982
265	2105
265	2806
265	2824
265	3663
265	3677
265	4359
265	4846
266	386
266	428
266	446
266	1059
266	1339
266	1474
266	1560
266	1601
266	2068
266	2163
266	2621
266	3089
266	3326
266	3692
266	3715
266	4092
267	369
267	531
267	606
267	901
267	929
267	1208
267	1503
267	1654
267	1766
267	1899
267	2361
267	2617
267	3598
267	4909
268	273
268	349
268	450
268	518
268	679
268	755
268	846
268	978
268	988
268	1019
268	1028
268	1057
268	1350
268	2784
268	3194
268	4319
268	4780
269	338
269	352
269	407
269	426
269	487
269	863
269	1276
269	1301
269	1328
269	1338
269	1726
269	1979
269	2379
269	2626
269	3422
269	3808
269	3978
269	4660
270	596
270	1341
270	1828
270	1965
270	2570
270	3175
270	3771
270	3840
270	4080
270	4434
270	4519
270	4676
271	280
271	335
271	610
271	885
271	1581
271	1711
271	2029
271	2037
271	2179
271	2286
271	2481
271	2966
271	3740
271	3882
271	4139
271	4724
271	4783
272	732
272	884
272	1137
272	1171
272	1847
272	2470
272	3514
272	3553
272	4669
273	290
273	345
273	347
273	408
273	416
273	464
273	497
273	510
273	630
273	631
273	789
273	854
273	873
273	904
273	930
273	961
273	1021
273	1029
273	1276
273	1291
273	1336
273	1457
273	1460
273	1620
273	1911
273	2081
273	2182
273	2187
273	2209
273	2362
273	2486
273	2562
273	2576
273	3272
273	3348
273	3379
273	3423
273	3713
273	3773
273	3812
273	4202
273	4655
274	605
274	1721
274	4460
275	485
275	494
275	540
275	949
275	2223
275	2306
275	2387
275	2627
275	3113
275	4120
275	4371
275	4763
275	4797
276	346
276	442
276	467
276	508
276	539
276	581
276	623
276	802
276	1040
276	1309
276	1387
276	1391
276	1599
276	1859
276	1880
276	2237
276	2522
276	2527
276	3170
276	3451
276	3463
276	4640
276	4660
276	4791
277	287
277	435
277	462
277	516
277	544
277	842
277	1059
277	1328
277	1407
277	1570
277	1785
277	1849
277	2134
277	2247
277	2350
277	2621
277	2826
277	3443
277	3449
277	4010
277	4283
277	4982
278	311
278	391
278	752
278	819
278	862
278	915
278	986
278	1277
278	1675
278	1771
278	2048
278	2174
278	2224
278	2368
278	2396
278	2452
278	2458
278	2469
278	2735
278	3041
278	3074
278	3462
278	3767
279	352
279	1064
279	1145
279	1505
279	1952
279	2405
279	2861
279	2956
279	3782
279	4501
280	465
280	483
280	960
280	3220
280	3387
280	4837
280	4947
281	440
281	555
281	689
281	920
281	1795
281	2782
281	2803
281	2832
282	305
282	344
282	365
282	460
282	793
282	992
282	1095
282	1892
282	2037
282	2290
282	2381
282	2599
282	2685
282	2846
282	3361
282	3438
282	3594
282	3934
282	3985
282	4023
282	4326
282	4662
282	4835
283	327
283	445
283	506
283	846
283	899
283	1725
283	1729
283	2427
283	2684
283	3488
283	3519
283	3601
283	3884
283	4107
283	4433
283	4572
284	853
284	1158
284	1340
284	1431
284	1572
284	2203
284	2839
284	3269
284	3548
284	3623
284	4232
284	4448
285	351
285	371
285	411
285	746
285	801
285	804
285	959
285	1414
285	1806
285	1816
285	2082
285	2163
285	2466
285	2946
285	4036
285	4194
285	4722
286	691
286	815
286	2654
286	2715
286	2725
286	2782
286	4109
286	4296
286	4493
286	4901
287	446
287	480
287	628
287	660
287	875
287	1246
287	1272
287	1450
287	1511
287	3913
287	4042
287	4355
287	4987
288	360
288	481
288	524
288	682
288	767
288	888
288	935
288	973
288	1082
288	1161
288	1212
288	1441
288	1507
288	1803
288	2065
288	2118
288	2294
288	2409
288	2460
288	2533
288	2836
288	2905
288	3726
288	3856
288	4036
288	4302
288	4518
288	4984
289	401
289	428
289	520
289	825
289	879
289	968
289	986
289	1047
289	1533
289	1873
289	1919
289	2269
289	2582
289	2600
289	2882
289	4102
289	4290
289	4811
289	4940
290	478
290	530
290	668
290	680
290	1142
290	1591
290	1786
290	2186
290	2327
290	2372
290	2397
290	2444
290	2644
290	3634
290	4544
290	4957
291	1102
291	1396
291	1441
291	3472
291	4380
291	4730
292	295
292	350
292	417
292	709
292	713
292	827
292	1032
292	1132
292	1153
292	1317
292	1380
292	1474
292	1497
292	2235
292	2417
292	2455
292	2827
292	3497
292	3666
292	3930
292	3953
292	4397
292	4766
293	381
293	418
293	556
293	825
293	1444
293	1600
293	1940
293	2536
293	2592
293	2648
293	2934
293	3044
293	3145
293	3624
293	4267
293	4605
294	339
294	595
294	806
294	908
294	935
294	1284
294	1358
294	1423
294	1683
294	1788
294	2214
294	2501
294	2669
294	3175
294	3696
294	4979
295	314
295	326
295	621
295	824
295	830
295	883
295	986
295	1068
295	1357
295	1826
295	1984
295	2896
295	3764
295	3984
296	1006
296	1356
296	1534
296	1615
296	1792
296	1797
296	1799
296	1924
296	2016
296	2055
296	2254
296	3130
296	3266
296	3449
296	3824
296	3835
296	4400
297	338
297	378
297	819
297	1083
297	1217
297	1610
297	1929
297	2433
297	2637
297	4063
298	785
298	1041
298	1505
298	1586
298	1813
298	1941
298	1959
298	2221
298	2495
298	2545
298	3589
298	3654
298	4120
298	4420
298	4671
298	4966
299	362
299	501
299	505
299	549
299	592
299	619
299	1059
299	1130
299	1331
299	1370
299	1470
299	1518
299	1592
299	1636
299	1860
299	1970
299	2447
299	2484
299	2566
299	2894
299	3488
299	3713
299	3732
299	3823
299	4486
300	431
300	601
300	722
300	1232
300	1773
300	1775
300	1785
300	1838
300	1912
300	2594
300	2671
300	2923
300	3696
301	421
301	458
301	552
301	899
301	942
301	1014
301	1238
301	1409
301	1738
301	2472
301	3045
301	4341
301	4483
302	322
302	383
302	414
302	419
302	1063
302	1115
302	1185
302	1310
302	1371
302	2314
302	2850
302	2924
302	4114
302	4557
302	4982
303	1176
303	2076
303	4595
303	4634
303	4757
304	456
304	457
304	460
304	642
304	870
304	900
304	938
304	981
304	1120
304	1194
304	1492
304	1676
304	1700
304	1879
304	1892
304	1978
304	2092
304	2255
304	2350
304	2378
304	2652
304	2871
304	3112
304	3376
304	3895
304	4079
304	4099
304	4555
304	4600
304	4666
305	423
305	624
305	664
305	1514
305	2001
305	2126
305	2586
305	2723
305	3162
306	466
306	622
306	764
306	1048
306	1304
306	1528
306	1653
306	2061
306	2713
306	3113
306	3378
306	3676
306	3695
306	4496
306	4771
307	335
307	351
307	357
307	457
307	855
307	1308
307	1352
307	1527
307	2165
307	2472
307	3056
307	3107
307	3183
307	4204
307	4242
308	312
308	422
308	447
308	541
308	550
308	1131
308	1210
308	1264
308	1343
308	1400
308	2211
308	2893
308	4038
308	4852
308	4907
309	422
309	696
309	742
309	797
309	1179
309	1365
309	1713
309	1840
309	2508
309	2946
309	3004
309	3342
310	460
310	534
310	561
310	569
310	650
310	719
310	856
310	1190
310	1206
310	1268
310	1545
310	1690
310	1749
310	1891
310	2054
310	2062
310	2290
310	2436
310	2515
310	2894
310	3191
310	3241
310	3249
310	3709
310	3924
310	4201
310	4329
310	4510
310	4591
310	4734
310	4897
311	363
311	519
311	735
311	856
311	866
311	1112
311	1126
311	1369
311	1655
311	1823
311	2271
311	2499
311	2932
311	3036
311	3062
311	4348
312	519
312	586
312	746
312	876
312	1178
312	1307
312	2093
312	2627
312	2983
312	3365
312	3782
312	3938
312	3990
312	4140
312	4409
312	4669
312	4881
312	4974
313	407
313	474
313	501
313	542
313	572
313	616
313	894
313	918
313	1015
313	1092
313	1170
313	1351
313	1481
313	1499
313	2067
313	2246
313	2247
313	2519
313	2617
313	3083
313	3261
313	3887
313	3907
313	4149
313	4247
313	4441
313	4532
313	4915
314	398
314	1076
314	1696
314	1846
314	2226
314	3137
314	3627
315	324
315	380
315	523
315	572
315	671
315	706
315	907
315	1009
315	1127
315	1205
315	1214
315	1483
315	1517
315	2406
315	2483
315	2712
315	3349
315	4558
315	4567
316	547
316	598
316	1113
316	1399
316	2339
316	2568
316	3403
316	4932
317	372
317	519
317	1555
317	2927
317	2954
317	3544
317	4095
317	4844
318	354
318	358
318	421
318	704
318	706
318	752
318	805
318	810
318	874
318	957
318	1218
318	1572
318	2302
318	2456
318	2465
318	2626
318	3081
318	3097
318	3172
318	3286
318	3606
318	4099
318	4501
318	4645
318	4956
318	4999
319	450
319	656
319	713
319	1174
319	1186
319	1836
319	2215
319	2664
319	2668
319	3126
319	3133
319	3309
319	3310
319	3353
319	3490
319	4189
319	4217
319	4867
320	356
320	360
320	596
320	863
320	879
320	1014
320	1422
320	1735
320	1804
320	2708
320	4419
320	4591
320	4592
320	4769
321	325
321	723
321	732
321	1314
321	1397
321	1707
321	1985
321	2099
321	2238
321	2696
321	3110
321	3566
321	3680
321	3752
321	4014
321	4976
322	384
322	402
322	597
322	815
322	1265
322	1381
322	1721
322	2232
322	2261
322	2486
322	2864
322	3178
322	3892
323	367
323	581
323	640
323	904
323	1101
323	1403
323	1552
323	1638
323	1696
323	1746
323	2210
323	2867
323	4378
323	4390
323	4552
323	4559
323	4631
323	4728
323	4847
324	408
324	771
324	2042
325	719
325	962
325	1027
325	1452
325	1514
325	2256
325	2605
325	3088
325	3355
325	3368
325	3823
325	3906
325	4641
325	4757
325	4760
326	464
326	478
326	521
326	610
326	645
326	680
326	779
326	985
326	1033
326	1075
326	1120
326	1344
326	1421
326	1509
326	1568
326	1792
326	2409
326	2658
326	3142
326	3322
326	3599
326	3879
326	3898
326	4328
327	356
327	396
327	460
327	2173
327	3325
328	804
328	1944
328	2244
328	3254
328	3283
328	3636
328	4479
328	4693
329	546
329	584
329	587
329	633
329	670
329	697
329	761
329	790
329	976
329	1263
329	1291
329	1421
329	1428
329	1488
329	1608
329	1714
329	1732
329	1946
329	1995
329	2034
329	2070
329	2072
329	2170
329	2260
329	2278
329	2353
329	2577
329	2578
329	2628
329	2653
329	2706
329	2783
329	2802
329	2857
329	2898
329	3148
329	3183
329	3225
329	3292
329	3374
329	3411
329	3506
329	3604
329	3828
329	4328
329	4579
329	4589
329	4609
329	4755
329	4828
329	4929
329	4996
330	687
330	1141
330	1192
330	1287
330	1593
330	1608
330	2228
330	2871
330	3450
330	4775
331	413
331	446
331	482
331	912
331	2366
331	2497
331	2944
331	4424
331	4693
332	978
332	1611
332	1752
332	2628
332	2694
332	2948
332	3534
332	3613
332	4355
332	4411
332	4905
332	4917
333	461
333	879
333	1281
333	1408
333	1478
333	1535
333	1788
333	3379
333	4262
334	528
334	729
334	1376
334	2526
334	3231
334	4089
334	4587
334	4643
335	864
335	1254
335	1308
335	1334
335	1874
335	2432
335	2735
335	2850
335	3333
335	3800
335	4072
335	4074
335	4251
336	637
336	841
336	1067
336	1833
336	1968
336	1996
336	2020
336	2613
336	3790
336	4066
336	4227
336	4564
336	4656
337	419
337	443
337	489
337	561
337	569
337	984
337	1487
337	1553
337	1926
337	1950
337	2387
337	3961
337	4027
337	4583
337	4671
338	406
338	1082
338	1277
338	1881
338	1993
338	2108
338	3163
338	3777
338	4076
339	368
339	374
339	518
339	1792
340	767
340	1700
340	2556
340	2931
340	3456
340	3844
340	3860
340	4387
341	433
341	564
341	849
341	924
341	1004
341	1078
341	1452
341	2095
341	2318
341	2374
341	2537
341	2573
341	2662
341	3502
341	3749
341	3768
341	3805
341	4477
341	4529
341	4735
341	4816
342	559
342	809
342	1589
342	1888
342	2309
343	485
343	532
343	596
343	733
343	886
343	956
343	969
343	1044
343	1105
343	1115
343	1223
343	1299
343	1786
343	1854
343	2523
343	2569
343	2791
343	3361
343	3997
343	4217
343	4284
343	4290
343	4499
343	4677
344	351
344	379
344	463
344	597
344	1373
344	1925
344	1946
344	2295
344	2496
344	2594
344	2623
344	2780
344	2971
344	3220
344	3959
344	4150
344	4515
344	4533
344	4627
344	4985
345	359
345	506
345	629
345	691
345	755
345	1288
345	1598
345	2385
345	2641
345	2751
345	2927
345	3518
345	4628
346	1189
346	1222
346	2063
346	3580
346	3745
346	4900
346	4998
347	387
347	405
347	450
347	511
347	618
347	651
347	813
347	939
347	1347
347	1363
347	1453
347	1700
347	1720
347	1853
347	1898
347	2389
347	2455
347	2591
347	3049
347	3070
347	3540
347	3598
347	4266
348	378
348	755
348	756
348	771
348	822
348	839
348	874
348	973
348	1346
348	1363
348	1408
348	1670
348	1701
348	1877
348	2010
348	2028
348	2227
348	2307
348	2431
348	2505
348	2640
348	2711
348	2928
348	3317
348	3320
348	3452
348	3583
348	3594
348	3689
348	3767
348	3962
348	3983
348	4804
349	600
349	723
349	760
349	1129
349	1427
349	1725
349	1839
349	1909
349	2082
349	2575
349	4715
350	355
350	694
350	703
350	1237
350	2012
350	2178
350	2185
350	2733
350	3503
350	3871
350	4434
350	4441
351	616
351	652
351	729
351	1019
351	1053
351	1098
351	1563
351	1881
351	2103
351	3164
351	3664
351	4110
351	4228
351	4267
351	4349
352	1375
352	1828
352	2874
352	3192
352	3986
352	4219
352	4567
352	4839
353	371
353	1035
353	2327
353	2354
353	2424
353	3112
353	3416
353	4545
353	4610
353	4674
354	534
354	805
354	995
354	2944
354	3417
354	3855
354	4052
354	4526
355	671
355	2398
355	2524
355	2675
355	3217
355	3615
355	4258
355	4461
356	640
356	688
356	698
356	713
356	744
356	1008
356	1146
356	1241
356	1309
356	1355
356	1703
356	1717
356	2155
356	2520
356	2637
356	2696
356	3307
356	4420
356	4610
356	4614
357	566
357	605
357	623
357	765
357	987
357	1845
357	1887
357	2101
357	2681
357	2720
357	2761
357	3957
357	3976
357	4278
358	586
358	1226
358	1260
358	1997
358	2638
358	2801
358	3981
358	4068
358	4577
358	4649
359	408
359	804
359	1061
359	1625
359	2233
359	2950
359	4281
360	736
360	1182
360	2061
360	2296
360	4240
361	1193
361	1448
361	1521
361	1968
361	2016
361	2075
361	2232
361	3494
361	4029
361	4350
362	369
362	394
362	872
362	890
362	981
362	996
362	1239
362	1537
362	1811
362	2162
362	2204
362	2218
362	2299
362	2459
362	2609
362	2792
362	2816
362	3031
362	3292
362	3442
362	3701
362	4034
362	4214
362	4223
362	4293
362	4464
362	4579
362	4856
363	420
363	632
363	1042
363	1460
363	1532
363	1751
363	2479
363	4064
364	528
364	669
364	818
364	930
364	1081
364	1093
364	1228
364	1369
364	1641
364	1953
364	1963
364	2110
364	2302
364	2458
364	2661
364	2981
364	3017
364	3801
364	3871
364	4113
364	4336
364	4597
364	4695
365	605
365	709
365	1819
365	2317
365	2366
365	2379
365	2399
365	2992
365	3589
365	3714
365	4382
365	4784
366	511
366	666
366	693
366	827
366	836
366	1020
366	1221
366	1256
366	1316
366	1612
366	1904
366	1919
366	2246
366	2253
366	2326
366	2361
366	2372
366	2682
366	3305
366	3312
366	3574
367	404
367	886
367	1029
367	1056
367	1437
367	1641
367	1669
367	2068
367	2296
367	2966
367	3179
367	3297
367	4039
367	4286
367	4469
367	4491
368	417
368	422
368	658
368	824
368	1120
368	1241
368	1258
368	1646
368	1796
368	1972
368	2021
368	2043
368	2523
368	2610
368	3475
368	3489
368	3499
368	3681
368	3697
369	427
369	463
369	512
369	683
369	701
369	842
369	951
369	1076
369	1305
369	1316
369	1343
369	1374
369	1734
369	1778
369	2192
369	2239
369	2411
369	2596
369	2681
369	2745
369	2780
369	2832
369	3204
369	3311
369	3486
369	3753
369	4098
369	4353
370	425
370	500
370	507
370	527
370	562
370	834
370	901
370	1037
370	1103
370	1291
370	1396
370	1880
370	1920
370	1975
370	2711
370	3100
370	3122
370	3135
370	3345
370	3878
370	3974
370	4029
370	4372
370	4406
370	4489
370	4719
370	4833
371	888
371	945
371	1426
371	1774
371	1856
371	1902
371	2384
371	4086
371	4690
372	593
372	617
372	919
372	981
372	1272
372	1967
372	2108
372	3053
372	3111
372	3300
372	4115
373	422
373	434
373	459
373	469
373	580
373	718
373	842
373	864
373	886
373	1089
373	1324
373	1822
373	2242
373	2566
373	2690
373	2849
373	3064
373	3995
373	4028
373	4820
373	4882
374	843
374	984
374	1294
374	1471
374	1607
374	1718
374	2028
374	2095
374	3048
374	3474
374	3765
374	4022
375	387
375	632
375	781
375	823
375	857
375	914
375	1101
375	1314
375	1574
375	2097
375	2389
375	2744
375	2817
375	3127
375	4035
375	4683
376	444
376	2490
376	3478
376	4252
376	4729
376	4790
377	505
377	746
377	859
377	889
377	1007
377	1031
377	1157
377	1296
377	1390
377	1457
377	1734
377	1896
377	2650
377	2665
377	3095
377	3514
377	3751
377	3798
377	4024
377	4807
378	561
378	676
378	693
378	929
378	1148
378	3224
378	3448
378	4983
379	453
379	643
379	662
379	812
379	2463
379	4772
380	495
380	686
380	775
380	780
380	993
380	1072
380	1115
380	1157
380	1223
380	1354
380	1359
380	1710
380	1900
380	1940
380	2009
380	2087
380	2526
380	2551
380	2683
380	2716
380	3327
380	3537
380	3955
380	3962
380	4104
380	4508
380	4781
380	4828
380	4963
381	474
381	1052
381	1065
381	1109
381	1124
381	1145
381	1609
381	1962
381	2196
381	2224
381	2308
381	3165
381	3557
381	3814
381	4009
381	4535
382	556
382	803
382	832
382	1824
382	2333
382	3030
382	3066
382	3549
382	4572
382	4695
383	413
383	514
383	637
383	794
383	873
383	933
383	1169
383	1206
383	1285
383	2759
383	3359
383	3459
383	3747
383	4630
384	786
384	1043
384	1046
384	1095
384	1426
384	1987
384	2227
384	2908
384	2940
384	2981
384	3033
384	3119
384	3120
384	4027
384	4759
385	1075
385	2348
385	2821
385	3045
385	3648
386	434
386	547
386	549
386	686
386	745
386	784
386	1024
386	1245
386	1330
386	1566
386	1702
386	1838
386	1859
386	2171
386	2586
386	2714
386	2884
386	3149
386	3177
386	3252
386	3421
386	3586
386	4555
386	4735
386	4901
387	431
387	1271
387	1506
387	1672
387	1815
387	2149
387	2329
387	3482
387	3571
387	4186
387	4356
387	4459
387	4536
388	4399
389	550
389	1114
389	1533
389	1800
389	2216
389	2334
389	3100
389	3656
389	3704
389	3865
389	3905
389	4024
389	4287
389	4331
389	4861
390	455
390	506
390	725
390	1119
390	1607
390	1921
390	1965
390	2749
390	3043
390	3796
390	3907
391	403
391	486
391	517
391	602
391	1027
391	1193
391	1219
391	1227
391	1292
391	1440
391	1497
391	1668
391	1722
391	1883
391	1897
391	1904
391	1917
391	1965
391	2096
391	2759
391	2806
391	2845
391	2968
391	3306
391	3407
391	3546
391	3572
391	3770
391	3939
391	4209
391	4307
391	4498
391	4541
391	4747
391	4769
392	537
392	825
392	1287
392	1330
392	1429
392	1473
392	1497
392	1527
392	1898
392	2143
392	2381
392	2513
392	2602
392	3398
392	3432
392	4652
393	468
393	659
393	892
393	927
393	1127
393	1209
393	1699
393	1705
393	1724
393	1837
393	2038
393	2044
393	2244
393	2313
393	2461
393	2595
393	2660
393	2956
393	3066
393	3299
393	4601
394	487
394	572
394	576
394	627
394	838
394	889
394	1104
394	1285
394	1348
394	1446
394	1501
394	1585
394	1645
394	1709
394	2060
394	2423
394	2430
394	2645
394	2838
394	3388
394	3567
394	3930
394	4494
395	700
395	1436
395	1559
395	1726
395	1775
395	2563
395	3907
395	4090
395	4947
395	4993
396	411
396	473
396	505
396	534
396	800
396	1096
396	1204
396	1590
396	1627
396	1637
396	1691
396	2338
396	2445
396	2670
396	3121
396	3162
396	3249
396	3427
396	3558
396	3753
397	544
397	578
397	617
397	814
397	1170
397	2473
397	2581
398	468
398	895
398	997
398	1297
398	1309
398	1854
398	2697
399	950
399	2120
399	2311
399	2873
399	3422
399	4792
400	443
400	563
400	631
400	829
400	1103
400	1295
400	1438
400	1963
400	2103
400	2209
400	2229
400	2511
400	2723
400	2848
400	3058
400	3378
400	3544
400	3774
400	4074
401	445
401	476
401	521
401	601
401	656
401	854
401	1114
401	2037
401	2158
401	2159
401	2217
401	2684
401	2699
401	3575
401	3846
401	3903
401	4097
401	4645
401	4817
402	690
402	1569
402	1619
402	2573
402	2677
402	3989
403	411
403	652
403	1106
403	1979
403	2128
403	4197
403	4245
404	563
404	612
404	684
404	957
404	1054
404	1374
404	1783
404	1827
404	2016
404	2185
404	2201
404	2223
404	2387
404	2507
404	2676
404	3461
404	4379
404	4425
405	478
405	644
405	680
405	690
405	692
405	723
405	1165
405	1350
405	1758
405	1776
405	1924
405	2554
405	2583
405	3336
405	3381
405	3831
405	3965
405	4391
405	4615
406	556
406	585
406	614
406	1480
406	3120
406	3381
406	3536
406	3944
407	658
407	1324
407	1505
407	1653
407	1885
407	1959
407	2173
407	2262
407	2643
407	2721
407	3154
407	3281
407	4134
407	4663
408	599
408	2383
408	2689
408	3543
409	431
409	493
409	1187
409	2202
409	2257
409	2362
409	3178
409	4495
410	490
410	663
410	1711
410	1905
410	1932
410	2291
410	2346
410	2812
410	2813
410	2941
410	3167
410	3573
410	3805
410	4073
410	4266
410	4446
410	4734
411	740
411	969
411	986
411	1110
411	1509
411	1688
411	1754
411	2091
411	2114
411	2231
411	2409
411	2524
411	2563
411	2653
411	3220
411	3346
411	3395
411	4202
411	4674
412	442
412	914
412	1016
412	1187
412	1197
412	1228
412	1443
412	1546
412	2142
412	2267
412	2400
412	2501
413	424
413	452
413	809
413	840
413	880
413	1905
413	1968
413	2164
413	2236
413	2245
413	2275
413	2475
413	2488
413	3946
413	4833
413	4986
414	461
414	627
414	1105
414	1186
414	1334
414	1563
414	1855
414	2490
414	2700
414	2744
414	2802
414	2835
414	3500
414	4153
414	4199
415	979
415	1023
415	1203
415	1540
415	1706
415	1985
415	2169
415	2195
415	2842
416	436
416	440
416	484
416	503
416	815
416	984
416	1089
416	1161
416	1603
416	2313
416	2482
416	2685
416	3552
416	3836
416	4320
416	4953
417	529
417	890
417	1007
417	1493
417	1521
417	1900
417	1999
417	2112
417	2672
417	3040
417	3103
417	3624
417	3787
417	3918
417	4739
417	4802
418	888
418	2197
418	2323
418	2512
418	2581
418	3360
418	3564
418	3603
418	3708
418	4824
419	1346
419	2538
419	3040
419	3621
419	3947
419	4220
419	4784
420	465
420	656
420	813
420	1052
420	1080
420	1081
420	1084
420	1302
420	1721
420	1776
420	3777
420	3858
420	4375
421	429
421	718
421	750
421	962
421	1004
421	1137
421	1376
421	1461
421	1640
421	1883
421	1916
421	2069
421	2734
421	2776
421	2809
421	2903
421	3166
421	3238
421	3423
421	3459
421	4000
421	4158
421	4187
421	4586
421	4706
421	4939
422	465
422	989
422	1843
422	1975
422	1991
422	2194
422	2300
422	2390
422	2448
422	2534
422	2767
422	2782
422	2853
422	3418
422	4654
422	4794
423	731
423	1280
423	1843
423	2105
423	2182
423	2332
423	2558
423	3571
423	3587
423	4167
424	594
424	1245
424	2910
424	4312
425	790
425	840
425	1494
425	2055
425	2528
425	3024
425	3353
425	3602
425	3973
425	3994
425	4651
425	4958
426	447
426	451
426	1531
426	1705
426	3116
427	635
427	759
427	864
427	1427
427	1471
427	2451
427	3989
427	4081
428	434
428	740
428	884
428	900
428	1008
428	1277
428	1332
428	1830
428	1916
428	2457
428	2469
428	3417
428	3475
428	3543
428	3576
428	3734
429	473
429	625
429	951
429	1407
429	1922
429	2179
429	3902
429	3966
429	4054
430	701
430	774
430	1139
430	1165
430	1524
430	2070
430	2165
430	2206
430	2221
430	2521
430	3085
430	3529
430	3812
430	4359
430	4386
430	4524
431	598
431	631
431	902
431	960
431	1036
431	1488
431	1658
431	1706
431	1803
431	1810
431	1961
431	2312
431	2324
431	2658
431	2870
431	2872
431	3050
431	3376
431	3403
431	3479
431	3871
431	4325
432	845
432	894
432	1102
432	2327
432	2518
432	3332
432	3910
432	4216
432	4236
433	944
433	2024
433	2210
433	2496
433	2508
433	2907
433	3419
433	4418
434	493
434	535
434	567
434	1128
434	1206
434	1388
434	1445
434	1520
434	1566
434	1605
434	1752
434	1797
434	1870
434	1907
434	2108
434	2420
434	2439
434	2650
434	2698
434	2820
434	2877
434	2936
434	3002
434	3236
434	3283
434	3377
434	3948
434	4517
435	812
435	928
435	1127
435	1172
435	1288
435	2301
435	4099
435	4591
435	4739
436	857
436	2795
436	2895
436	3177
436	3545
436	3636
436	4437
436	4540
437	508
437	575
437	647
437	722
437	869
437	934
437	988
437	1089
437	1100
437	1428
437	1439
437	1549
437	1657
437	1722
437	1817
437	2018
437	2089
437	2323
437	2503
437	2512
437	2557
437	2720
437	2736
437	2918
437	3084
437	3285
437	3298
437	3481
437	3505
437	3587
437	3761
437	3823
437	3843
437	3899
437	4103
437	4138
437	4230
437	4247
437	4259
437	4271
437	4343
437	4370
437	4388
437	4573
437	4654
437	4847
437	4965
438	565
438	570
438	819
438	1050
438	1111
438	1394
438	1503
438	1515
438	1534
438	1622
438	2128
438	2145
438	2222
438	2312
438	2852
438	3469
438	3614
438	3991
438	4085
438	4276
438	4651
439	707
439	753
439	839
439	849
439	1114
439	1162
439	1544
439	2626
439	3051
439	3203
439	3344
439	3689
439	3691
439	3797
440	523
440	564
440	724
440	1028
440	1224
440	2110
440	2249
440	2347
440	2622
440	2970
440	3284
440	3306
440	3464
440	4277
440	4626
440	4707
440	4826
441	475
441	489
441	896
441	1184
441	1543
441	1558
441	2279
441	2721
441	3567
441	4775
442	618
442	687
442	1513
442	1834
442	1850
442	2351
442	2399
442	2705
442	2952
442	3098
442	3371
442	3676
442	3744
442	4096
442	4762
442	4770
443	541
443	565
443	1447
443	2615
443	3570
443	3672
443	4458
444	455
444	459
444	510
444	593
444	619
444	642
444	730
444	937
444	1000
444	1848
444	1942
444	2119
444	2243
444	2824
444	3279
444	3311
444	3575
444	3755
444	3805
445	537
445	694
445	708
445	751
445	886
445	1002
445	1113
445	1276
445	1425
445	1740
445	1786
445	2608
445	2769
445	3314
445	3383
445	3413
445	3779
445	3833
445	4451
445	4716
445	4938
446	520
446	1617
446	3470
446	3747
446	3870
446	4231
446	4234
447	581
447	699
447	1513
447	1855
447	2287
447	3048
447	3550
447	4636
448	767
448	1590
448	1693
448	2687
448	4889
449	479
449	577
449	664
449	1283
449	1393
449	2188
449	2298
449	2390
449	2661
449	3168
449	3587
450	1177
450	1791
450	2002
450	2552
450	2702
450	3304
450	3684
450	3700
450	3893
450	4046
450	4932
451	611
451	1410
451	1513
451	1581
451	1829
451	2053
451	2674
451	2680
451	2778
451	2905
451	3321
451	3405
451	3960
451	4031
451	4251
451	4374
451	4794
452	475
452	557
452	566
452	666
452	724
452	744
452	765
452	1505
452	1754
452	2138
452	2266
452	2394
452	3201
452	3297
452	3739
452	3750
452	4211
452	4736
453	509
453	881
453	921
453	1307
453	1560
453	1580
453	1685
453	1699
453	2265
453	2892
453	2951
453	3001
453	3110
453	3365
453	3477
454	506
454	1362
454	2020
454	2365
454	3647
454	3851
454	4250
454	4797
455	486
455	612
455	725
455	793
455	1493
455	2116
455	2212
455	2729
455	3096
455	3760
455	3883
455	4345
455	4723
455	4826
455	4863
455	4883
456	564
456	1292
456	2047
456	2402
456	2732
456	3744
457	572
457	576
457	686
457	753
457	866
457	893
457	1529
457	1598
457	1660
457	2393
457	2844
457	3261
457	3421
457	3659
457	4440
457	4484
457	4498
457	4937
458	893
458	1648
458	1927
458	2259
458	2579
458	3321
458	4197
458	4409
458	4813
459	653
459	822
459	832
459	966
459	1324
459	2574
459	2672
459	3434
459	3477
459	3630
459	4991
460	950
460	1350
460	1703
460	1979
460	2058
460	2644
460	3189
460	3503
460	3590
460	3784
460	4910
461	539
461	1672
461	1700
461	2400
461	2511
461	3076
461	3295
461	4218
461	4249
461	4356
462	514
462	543
462	821
462	823
462	1478
462	1959
462	2266
462	2851
462	2980
462	3577
462	4153
462	4235
462	4499
463	636
463	1908
463	2249
463	2706
463	2987
463	3230
463	3696
463	4047
464	1032
464	1389
464	1618
464	2089
464	3721
465	538
465	551
465	562
465	606
465	1399
465	1475
465	1773
465	2424
465	2669
465	2727
465	3713
466	513
466	577
466	580
466	611
466	734
466	762
466	1841
466	2437
466	4512
467	570
467	2220
467	2407
467	4343
468	574
468	690
468	1214
468	2125
468	2510
468	2976
468	3087
468	3888
468	4107
468	4342
469	1587
469	1814
469	2375
469	2524
469	2620
469	3077
469	3683
469	4027
469	4546
469	4807
470	723
470	1157
470	1180
470	1356
470	1922
470	4666
471	554
471	1944
471	1953
471	2015
471	2262
472	2073
472	2154
472	2264
472	2531
472	2704
472	3541
472	3647
472	3991
472	4936
472	4946
473	597
473	868
473	1094
473	1126
473	2403
473	2820
474	479
474	552
474	978
474	1167
474	1176
474	1408
474	1491
474	1726
474	1882
474	2100
474	2700
474	2999
474	3335
474	3682
474	3802
474	3811
475	651
475	1110
475	1366
475	1682
475	1698
476	530
476	609
476	823
476	1212
476	1268
476	1788
476	1941
476	2282
476	2413
476	2785
476	2789
476	3005
476	3761
476	4486
476	4596
476	4788
477	642
477	1464
477	1777
477	1915
477	3344
478	515
478	1182
478	1486
478	2005
478	2477
478	3137
478	3330
478	4004
478	4251
478	4351
478	4720
479	1011
479	1258
479	1368
479	1781
479	2212
479	2598
479	2606
479	3699
479	4588
479	4866
480	625
480	775
480	1371
480	1857
480	2696
480	3650
480	3685
480	3931
480	4280
481	617
481	684
481	831
481	965
481	1038
481	1712
481	2464
481	3203
481	3404
481	4129
481	4195
481	4265
481	4450
481	4786
481	4919
482	511
482	1451
482	2201
482	2604
482	2763
482	3117
482	3235
482	4129
482	4612
482	4734
482	4816
483	782
483	924
483	1600
483	1693
483	3313
483	3314
484	587
484	901
484	1169
484	1361
484	1879
484	2063
484	2080
484	2202
484	3189
484	3950
484	4534
485	579
485	645
485	774
485	814
485	996
485	1874
485	2901
485	3143
485	3176
485	3202
485	3375
485	3386
485	4801
486	670
486	902
486	970
486	985
486	1073
486	1445
486	1456
486	1518
486	1671
486	2043
486	4033
487	712
487	835
487	852
487	1205
487	1377
487	1486
487	1528
487	1731
487	2148
487	2365
487	2377
487	2598
487	2932
487	3486
487	4604
487	4724
488	929
488	979
488	1621
488	2214
488	2882
488	3765
488	4157
488	4497
489	533
489	764
489	777
489	1637
489	1655
489	1667
489	1677
489	1733
489	1826
489	1964
489	2147
489	2234
489	2434
489	2462
489	2493
489	2582
489	2634
489	2874
489	3301
489	3357
489	3649
489	3742
489	3784
489	4034
489	4117
489	4223
489	4675
489	4911
489	4918
489	4921
490	1001
490	1347
490	1859
490	2697
491	527
491	606
491	721
491	845
491	1305
491	1770
491	1843
491	2027
491	2079
491	2217
491	2860
491	2947
491	3347
491	3519
491	3847
491	3894
491	3896
491	4272
491	4875
492	584
492	1112
492	3297
492	3528
492	3873
492	4041
492	4526
492	4622
493	651
493	674
493	905
493	916
493	1354
493	1659
493	2060
493	2125
493	3158
493	3795
493	3893
494	527
494	531
494	595
494	617
494	741
494	860
494	881
494	894
494	971
494	1010
494	1071
494	1192
494	1555
494	1861
494	3111
494	3998
494	4266
494	4302
494	4475
494	4538
494	4883
495	1168
495	2408
495	3005
495	3370
495	3436
495	3698
495	4275
495	4915
496	715
496	899
496	1135
496	1377
496	1500
496	1538
496	2076
496	2700
496	2824
496	2829
496	2987
496	3248
496	3690
496	4063
496	4084
496	4290
496	4547
496	4744
496	4951
497	2982
497	3124
497	4113
498	543
498	1012
498	1068
498	1505
498	2078
498	2371
498	2504
498	2548
498	2603
498	2949
498	2960
498	3109
498	3567
498	4225
499	1240
499	1435
499	1894
499	2190
499	3745
500	542
500	584
500	677
500	1388
500	1395
500	1512
500	1818
500	3725
500	3832
500	4568
500	4773
501	873
501	1889
501	2071
501	2117
501	2234
501	2435
501	3538
502	716
502	848
502	1193
502	1225
502	2940
502	3237
502	3402
502	4612
503	737
503	1327
503	1453
503	2861
503	3616
503	3842
503	4433
504	670
504	708
504	1275
504	1289
504	1384
504	2307
504	3852
504	3928
504	3993
504	4027
504	4142
504	4959
505	645
505	1026
505	2002
505	2135
506	621
506	712
506	737
506	915
506	953
506	1035
506	1512
506	2347
506	2378
506	2516
506	2554
506	2693
506	3027
506	4481
507	584
507	835
507	1664
507	2092
507	2251
507	2506
507	2645
507	2657
507	3628
507	4034
507	4440
507	4444
508	525
508	1571
508	1828
508	1960
508	2058
508	2290
508	2331
508	2722
508	2899
508	3534
508	4017
509	671
509	672
509	710
509	730
509	1105
509	1343
509	1444
509	1687
509	2594
509	3413
509	3747
509	4329
510	646
510	741
510	1884
511	588
511	1156
511	2382
511	3730
511	4332
511	4334
511	4336
511	4820
512	568
512	2067
512	4788
512	4883
513	1425
513	2889
514	878
514	1404
514	2264
514	2291
514	2302
514	2695
514	3678
515	2133
515	2411
515	3173
515	3242
515	3862
515	3926
515	4640
516	1298
516	1406
516	1420
516	1482
516	1992
516	3770
516	4531
517	533
517	692
517	798
517	974
517	1320
517	1895
517	1933
517	2985
517	3069
517	4013
517	4504
517	4595
517	4812
517	4894
518	1148
518	1745
518	1757
518	1918
518	2416
518	2886
518	3057
518	3313
518	4832
519	709
519	728
519	945
519	1883
519	1999
519	2068
520	637
520	999
520	1241
520	1927
520	2328
520	3004
520	3037
520	3579
520	4366
520	4516
520	4698
520	4831
520	4916
521	560
521	812
521	1119
521	1286
521	1386
521	1780
521	1940
521	3554
521	3878
521	4028
521	4300
521	4862
522	953
522	1078
522	1096
522	2080
522	3179
522	4321
523	615
523	872
523	883
523	1201
523	1343
523	1367
523	1452
523	1886
523	2042
523	2351
523	2701
523	3233
523	3946
523	4016
523	4101
523	4430
524	733
524	833
524	1876
524	2084
524	2256
524	3058
525	652
525	768
525	992
525	1025
525	1178
525	3073
525	3090
525	3260
525	3818
525	4646
526	573
526	838
526	1413
526	2148
526	2206
526	2713
526	3209
526	3905
526	4160
526	4390
527	619
527	683
527	721
527	742
527	859
527	1046
527	1151
527	1171
527	1385
527	1409
527	1460
527	2107
527	2561
527	2562
527	2917
527	2990
527	3219
527	3298
527	4000
527	4357
527	4952
528	644
528	865
528	895
528	1036
528	1347
528	1419
528	1555
528	2788
528	3544
528	4802
529	638
529	729
529	1001
529	1285
529	2211
529	2686
529	3161
529	3414
529	4086
529	4570
529	4987
530	556
530	558
530	707
530	875
530	998
530	1208
530	1408
530	1525
530	2215
530	2602
530	2696
530	2941
530	3308
530	3333
530	3520
530	4224
530	4677
530	4871
531	734
531	1444
531	1578
531	1663
531	2474
532	913
532	1215
532	1554
532	1918
532	2437
532	2529
532	2996
532	3811
532	3835
532	4943
533	653
533	832
533	871
533	990
533	1195
533	1214
533	1359
533	1868
533	1958
533	1959
533	2090
533	2149
533	2162
533	2219
533	2542
533	2582
533	2928
533	3193
533	3201
533	3360
533	3800
533	4219
533	4976
534	540
534	622
534	667
534	1236
534	1255
534	1266
534	1332
534	1455
534	1531
534	1854
534	2117
534	2227
534	2266
534	2420
534	3156
534	3273
534	3892
534	4544
534	4617
534	4642
535	634
535	1046
535	1335
535	1378
535	1872
535	2473
536	697
536	1194
536	1235
536	1236
536	1247
536	1392
536	1473
536	1683
536	1914
536	2010
536	2828
536	3532
536	3589
536	3797
536	4673
536	4919
537	893
537	1143
537	1159
537	1668
537	1870
537	2492
537	2647
537	2795
537	3569
537	4266
538	1434
538	1609
538	1692
538	1834
538	1837
538	1915
538	2258
538	2362
538	3129
538	4189
539	657
539	1727
539	2371
539	2856
539	3430
539	4305
540	571
540	1820
540	3111
540	3637
540	4657
541	699
541	889
541	1681
541	2422
541	2425
541	2580
541	3752
541	3863
541	4498
542	1026
542	1740
542	2128
542	2250
542	3171
542	3499
542	3586
542	4154
542	4902
543	620
543	1984
543	3349
543	3405
543	3903
543	4931
544	615
544	1298
544	1655
544	2288
544	2342
544	2654
544	2798
544	3074
544	3447
544	3535
544	3786
544	3809
544	4064
544	4170
545	1817
545	3879
546	930
546	989
546	1381
546	1463
546	1479
546	3088
546	3970
546	4253
546	4555
546	4581
547	778
547	837
547	902
547	1018
547	1931
547	1997
547	2544
547	2871
547	3042
547	3201
547	3405
547	3426
547	3684
547	3916
547	4482
547	4646
548	829
548	958
548	995
548	1276
548	2439
548	2478
548	2850
548	2976
548	3363
548	3655
548	4192
548	4360
548	4639
549	620
549	908
549	2968
549	3384
549	4580
550	737
550	1144
550	2615
550	2920
550	3526
550	3855
550	3933
550	4445
550	4665
550	4998
551	1289
551	1374
551	1492
551	2156
551	2880
551	3079
551	3752
552	1251
552	1603
552	1697
552	3470
552	3834
552	3962
552	4486
553	1513
553	2030
553	3129
553	4944
553	4958
554	900
554	1579
554	2132
554	2370
554	4018
555	648
555	893
555	1259
555	2183
555	2998
555	4138
555	4351
555	4394
556	647
556	719
556	758
556	1613
556	1819
556	2092
556	2155
556	3190
556	4006
556	4535
557	1146
557	1233
557	1517
557	1575
557	1727
557	1798
557	2316
557	3842
557	4097
557	4125
557	4554
557	4713
558	679
558	847
558	873
558	917
558	964
558	1381
558	1412
558	2169
558	2320
558	2786
558	3222
558	3668
558	4517
559	581
559	622
559	634
559	707
559	791
559	826
559	1030
559	1279
559	1292
559	1397
559	1415
559	1846
559	2087
559	2490
559	2873
559	2954
559	3047
559	3426
559	4062
559	4426
559	4463
559	4495
559	4692
559	4865
560	1390
560	1562
560	1903
560	2379
560	3234
560	3526
560	3597
560	3949
560	4037
561	587
561	627
561	942
561	1106
561	1199
561	1812
561	2196
561	2259
561	2618
561	2883
561	2888
561	3396
561	3781
561	4664
561	4748
561	4815
562	734
562	2576
562	2619
562	4350
563	1973
563	2090
563	2189
563	2281
563	3059
563	3677
563	3793
563	3867
564	805
564	1294
564	1322
564	1756
564	2260
564	2691
564	2767
564	4281
564	4693
565	577
565	657
565	994
565	1084
565	1440
565	1725
565	2157
565	2254
565	2345
565	2563
565	3686
565	4256
565	4563
565	4735
566	918
566	938
566	970
566	1139
566	1499
566	1589
566	2022
566	2063
566	2109
566	3470
566	3502
566	4435
567	1148
567	1262
567	1483
567	1620
567	1661
567	1715
567	1853
567	1946
567	2039
567	2458
567	2694
567	3040
567	3401
567	3468
567	3660
567	3699
567	4235
568	1140
568	3089
568	4173
569	582
569	670
569	3667
569	4126
569	4430
569	4543
570	627
570	716
570	973
570	1572
570	2069
570	3039
570	4229
571	618
571	997
571	2542
571	3041
571	3467
571	3633
571	4083
571	4249
571	4787
572	613
572	1183
572	1197
572	1873
572	2659
572	4548
573	703
573	786
573	1122
573	1164
573	1575
573	1767
573	1964
573	2104
573	2412
574	607
574	702
574	1206
574	1336
574	1469
574	1594
574	1623
574	1632
574	1860
574	2904
574	2946
574	3642
574	4291
574	4638
575	632
575	662
575	788
575	1268
575	1763
575	2018
575	2595
575	4154
575	4213
575	4755
576	1352
576	2107
576	2704
576	2809
576	3672
577	698
577	1270
577	1374
577	1876
577	2279
577	2467
577	3529
577	4927
578	1412
578	1777
578	1900
578	2077
578	2149
578	2222
578	2552
578	3807
578	4709
579	619
579	678
579	729
579	739
579	1063
579	1664
579	1711
579	1883
579	2110
579	2347
579	2574
579	2737
579	3245
579	3312
579	4022
579	4244
579	4349
579	4626
580	1430
580	1520
580	2135
580	2185
580	2257
580	2653
580	3127
580	4462
581	641
581	674
581	897
581	1291
581	1396
581	1771
581	2020
581	2231
581	3303
581	3369
581	3502
581	3509
583	1097
583	1109
583	2607
583	2924
584	739
584	953
584	1047
584	1368
584	1449
584	1511
584	1739
584	1874
584	2162
584	2179
584	2491
584	2819
584	3028
584	3066
584	3125
584	3206
584	3817
584	4107
584	4356
584	4522
584	4685
585	1967
585	2091
585	4724
585	4922
586	658
586	960
586	1100
586	1143
586	2333
586	2622
586	2871
586	3736
586	4512
587	679
587	772
587	790
587	1244
587	1420
587	1633
587	2615
588	728
588	745
588	809
588	2899
588	3103
588	3425
589	754
589	834
589	1159
589	2551
589	2651
589	2868
589	2887
589	3021
589	3416
589	3744
589	3867
589	4258
589	4361
590	616
590	912
590	937
590	1654
590	1761
590	2701
590	2803
590	3132
590	3383
590	3542
590	3965
590	4793
591	991
591	1203
591	1734
591	2031
591	2174
591	2205
591	3012
591	3015
591	3317
591	4472
591	4739
591	4817
592	825
592	942
592	980
592	1031
592	1042
592	1249
592	1344
592	1433
592	1597
592	1616
592	1689
592	1724
592	1812
592	2156
592	2401
592	2492
592	2540
592	3195
592	3223
592	3731
592	4058
592	4621
592	4667
592	4695
592	4877
593	665
593	918
593	1029
593	1199
593	1311
593	1382
593	1458
593	1556
593	1587
593	1872
593	1935
593	2207
593	2216
593	2293
593	2779
593	3024
593	3776
593	4006
593	4209
593	4321
593	4361
593	4581
593	4650
593	4796
593	4807
594	1238
594	1500
594	1967
594	2232
594	2551
594	2847
594	3539
594	3575
594	3740
594	4296
595	602
595	715
595	1192
595	2459
595	2971
595	3648
595	4228
596	709
596	711
596	1044
596	1761
596	1824
596	1825
596	2525
596	2765
596	2920
596	3271
596	3914
596	4396
596	4499
596	4940
597	1596
597	1717
597	3397
598	1079
598	2310
598	3156
599	698
599	735
599	824
599	997
599	1337
599	1391
599	1838
599	1943
599	2359
599	2597
599	3429
599	3469
599	3646
600	612
600	770
600	2178
600	2319
600	2390
600	2881
600	3411
600	4083
600	4659
600	4899
601	1211
601	1602
601	1864
601	2144
601	2205
601	2293
601	3147
601	3957
601	4392
602	735
602	831
602	2408
602	3716
602	3720
602	4632
602	4763
603	685
603	704
603	1048
603	1177
603	1306
603	1551
603	1941
603	2161
603	2467
603	3259
603	3400
603	4126
603	4745
603	4790
604	1128
604	1924
604	2267
604	4351
605	921
605	2353
605	2664
605	3423
605	3532
605	3764
605	4140
605	4387
605	4756
605	4808
606	2418
606	3998
607	667
607	818
607	984
607	3146
607	4398
607	4470
607	4616
608	822
608	881
608	1359
608	1476
608	1650
608	2014
608	2811
608	3311
608	3344
608	3407
608	3644
608	4340
609	770
609	1224
609	1456
609	1666
609	3090
609	3745
609	3805
609	4114
609	4426
609	4837
610	763
610	1496
610	2228
610	2322
610	2690
610	3718
610	3796
610	3826
610	4719
610	4856
611	635
611	738
611	750
611	754
611	1072
611	1083
611	1101
611	1642
611	1716
611	1899
611	4209
611	4541
611	4863
612	738
612	855
612	1090
612	1238
612	2873
612	3096
612	3239
612	4212
612	4261
612	4382
613	902
613	1394
613	2080
613	3154
613	3327
613	3883
614	1129
614	1685
614	3875
615	938
615	1839
615	2158
615	3067
615	3781
615	3827
616	624
616	1615
616	1819
616	2064
616	3402
616	4638
617	710
617	718
617	775
617	793
617	877
617	961
617	1313
617	1439
617	2584
617	2600
617	3935
617	4074
617	4616
618	2620
619	843
619	921
619	926
619	1237
619	1390
619	2280
619	2484
619	2983
619	4075
619	4597
619	4918
620	667
620	895
620	1525
620	2053
620	2176
620	2241
620	2363
620	2591
620	2596
620	3107
620	3187
620	3249
620	3687
620	4778
621	623
621	706
621	889
621	1049
621	1164
621	1511
621	1856
621	2193
621	2295
621	2310
621	2938
621	3054
621	3819
621	4141
621	4295
621	4425
621	4432
621	4565
622	1105
622	1645
622	3857
623	698
623	1121
623	1203
623	1723
623	2151
623	2360
623	3193
623	4113
623	4381
624	665
624	704
624	834
624	870
624	1066
624	1172
624	1658
624	2026
624	2549
624	3284
624	3361
624	4013
624	4656
625	1360
625	1446
625	1804
625	1934
625	2258
625	2607
625	3512
625	4061
625	4575
626	769
626	1125
626	3553
627	665
627	766
627	3263
628	679
628	1285
628	1340
628	2121
628	2544
628	2890
628	3286
628	3877
628	3886
629	724
629	856
629	998
629	1013
629	1073
629	1512
629	2034
629	2047
629	2129
629	3698
629	4019
629	4395
630	823
630	1509
630	1858
630	3015
630	3432
630	3918
630	4454
631	1108
631	1253
631	3887
631	4474
631	4577
632	869
632	1501
632	1714
632	1970
632	3149
632	4527
633	1437
633	1768
633	1977
633	2161
633	3747
633	3867
633	3883
633	4648
633	4665
633	4848
634	682
634	1091
634	1283
634	1548
634	1869
634	2099
634	2312
634	2742
634	2929
634	3813
634	3925
634	4583
634	4675
634	4795
634	4922
635	782
635	947
635	1368
635	1382
635	1389
635	1910
635	1932
635	1997
635	2124
635	2827
635	3372
635	4173
635	4422
636	743
636	939
636	1066
636	1130
636	1553
636	1688
636	2534
636	3347
636	4226
636	4279
636	4443
636	4602
636	4988
637	662
637	764
637	2541
637	3081
637	3200
637	3282
637	3645
637	4452
637	4521
637	4981
638	706
638	749
638	760
638	1470
638	1515
638	1626
638	1755
638	2233
638	2599
638	2755
638	2776
638	3187
638	3464
638	4284
638	4978
639	664
639	855
639	946
639	968
639	982
639	1213
639	1313
639	1325
639	1373
639	1468
639	1544
639	1615
639	1692
639	1974
639	2007
639	2082
639	2310
639	2760
639	2809
639	3233
639	3268
639	3321
639	3467
639	3501
639	3897
639	3920
639	3932
639	3994
639	3998
639	4089
639	4183
639	4375
640	765
640	865
640	1008
640	1045
641	1219
641	1283
641	1533
641	1559
641	2646
641	2941
641	4273
642	818
642	1087
642	1189
642	1528
642	1982
642	2059
642	2162
642	2172
642	2459
642	4213
643	782
643	1156
643	1172
643	1231
643	1451
643	1747
643	2430
643	3015
643	3017
643	3787
643	4298
643	4664
644	661
644	742
644	779
644	796
644	1138
644	1480
644	1542
644	2224
644	2570
644	2854
644	3506
644	3850
645	813
645	1014
645	1515
645	2153
645	2500
646	836
646	3016
647	672
647	763
647	876
647	1185
647	1227
647	1972
647	2168
647	2755
647	3384
647	3952
647	4690
647	4825
648	677
648	850
648	963
648	1257
648	1294
648	2221
648	2447
648	2767
648	3269
648	3971
648	4077
648	4727
649	1290
649	2655
649	2904
650	690
650	1017
650	1321
650	1460
650	1673
650	2561
650	4239
651	727
651	861
651	1171
651	2431
651	2658
651	2969
651	3270
651	3454
651	3496
651	4760
651	4893
652	1149
652	1263
652	2366
652	3116
652	3126
652	3391
652	3916
653	1379
653	2159
653	4635
654	1798
655	682
655	891
655	1153
655	1238
655	1436
655	1795
655	2473
655	2475
655	2476
655	2750
655	2896
655	2986
655	3506
655	4132
656	659
656	687
656	970
656	1120
656	3848
656	3999
657	1136
657	1137
657	1261
657	1477
657	1685
657	1898
657	2043
657	2342
657	2482
657	2539
657	2983
657	3055
657	3064
657	3384
657	3911
657	4025
657	4327
658	1111
658	1873
658	2456
658	2460
658	2661
658	2662
658	3061
658	3171
658	3439
658	4560
658	4574
658	4761
658	4847
658	4914
659	1837
659	3203
659	4426
659	4587
660	939
660	1047
660	1760
660	1791
660	2927
660	3332
660	3938
661	939
661	1436
661	2007
661	2692
661	2860
661	3089
661	3888
662	754
662	1232
662	1515
662	1797
662	2600
662	2683
662	3366
662	3725
662	4199
662	4295
662	4362
662	4988
663	759
663	794
663	892
663	1576
663	1703
663	2219
663	2225
663	4161
663	4189
664	672
664	1861
664	2130
664	3803
664	4440
664	4619
665	878
665	911
665	919
665	951
665	954
665	966
665	994
665	1007
665	1084
665	1107
665	1518
665	1628
665	2072
665	2238
665	3636
665	3639
665	4224
665	4476
666	732
666	787
666	1101
666	1546
666	1736
666	1769
666	1885
666	2117
666	2331
666	4330
666	4584
667	800
667	802
667	897
667	1008
667	1296
667	1466
667	1584
667	1673
667	1952
667	2030
667	2133
667	2184
667	2370
667	2516
667	2543
667	3097
667	3385
667	3608
667	3925
667	4545
668	1035
668	1946
668	2430
668	2991
668	3253
668	3397
668	3768
668	3773
669	1050
669	1433
669	1445
669	1524
669	3056
669	3299
669	4611
669	4688
670	799
670	1286
670	1801
670	2208
670	2831
670	2878
670	3114
670	4111
670	4392
670	4902
670	4998
671	1952
671	2726
671	4574
672	676
672	1008
672	1823
672	2248
672	2515
672	2925
673	822
673	1128
673	2121
673	2818
673	3347
673	4286
673	4327
673	4442
673	4760
673	4811
673	4923
674	1076
674	1078
674	2117
674	2126
674	2977
674	4012
674	4164
674	4367
675	849
675	887
675	1648
675	1652
675	2427
675	2834
675	3104
675	4038
675	4115
676	776
676	791
676	1349
676	1416
676	1458
676	1638
676	1877
676	1884
676	2679
676	3169
676	3615
676	3832
676	4052
676	4269
676	4716
677	2013
678	741
678	944
678	1305
678	1519
678	2070
679	796
679	967
679	1140
679	1170
679	1624
679	1753
679	1801
679	1802
679	2065
679	2088
679	2215
679	2588
679	2769
679	3293
679	3843
679	4061
680	688
680	955
680	1109
680	1235
680	1611
680	2234
680	2356
680	2920
680	3290
680	4159
680	4720
681	756
681	787
681	905
681	1175
681	1316
681	1500
681	2069
681	2954
681	3138
681	4660
681	4827
682	1267
682	1332
682	1363
682	1501
682	1597
682	2875
683	689
683	1645
683	1872
683	2034
683	2102
683	3157
683	3574
683	3629
683	3860
683	4121
683	4920
684	2084
684	2231
684	2730
684	2891
684	3062
685	1682
685	2955
685	3265
685	3294
685	3888
685	4456
685	4688
686	941
686	1260
686	1587
686	2547
686	4601
687	875
687	923
687	983
687	1632
687	2236
688	733
688	975
688	1297
688	1464
688	2592
688	2946
688	3448
688	3839
689	789
689	1431
689	4259
689	4742
690	860
690	896
690	969
690	1857
690	2029
690	2962
690	2973
690	2997
690	3200
690	3311
690	3643
690	3751
690	4261
690	4470
690	4517
691	1129
691	1608
691	2053
691	2155
691	3414
691	3565
692	768
692	841
692	1067
692	1095
692	1706
692	2050
692	2143
692	2241
692	3755
692	3868
692	4235
693	902
693	1182
693	2021
694	925
694	1485
694	2926
694	3350
694	4527
695	940
695	1134
695	1391
695	1960
695	2402
695	2702
695	2777
695	2883
696	1173
696	1851
696	2167
696	4789
697	773
697	1831
697	2825
697	4336
698	717
698	863
698	1080
698	1155
698	1267
698	1516
698	1526
698	1535
698	1997
698	2031
698	2184
698	2540
698	3238
698	3267
698	3473
698	3531
698	4048
698	4206
698	4573
698	4604
698	4904
699	717
699	1128
699	1470
699	2320
699	2532
699	2603
699	3285
699	3558
699	4100
699	4419
699	4820
700	770
700	1159
700	1472
700	1825
700	4126
700	4768
700	4927
701	1917
701	2160
701	2462
701	2496
701	2543
701	3670
701	4827
702	935
702	1762
702	3793
702	4479
703	1297
703	1418
703	1596
703	1676
703	4857
704	1231
704	1367
704	1530
704	4021
704	4879
705	851
705	1319
705	2103
705	3007
705	3014
705	3065
705	3885
705	3901
706	789
706	1028
706	1778
706	2471
706	2762
706	2897
706	3482
706	3528
706	3542
707	911
707	1072
707	3612
707	4175
708	747
708	910
708	1912
708	2612
708	2715
708	3723
708	4298
708	4831
709	1266
709	1269
709	1301
709	2913
709	3810
709	4174
710	3818
711	751
711	847
711	1071
711	1537
711	1680
711	2203
711	2436
711	2753
711	2929
711	4866
711	4886
712	1258
712	2243
712	2517
712	2948
712	4378
713	2536
713	4299
714	2093
714	2789
714	4112
715	910
715	917
715	2536
715	2641
715	2706
715	3489
715	3923
715	3950
715	4485
715	4696
715	4949
716	1251
716	1261
716	2081
716	2314
717	1162
717	1663
717	2084
717	2284
717	2558
717	3048
717	4045
718	1700
718	2341
718	2805
718	3182
718	3992
719	1029
719	2213
719	2862
720	742
720	833
720	1275
720	1467
720	1471
720	2439
720	4236
720	4529
720	4543
721	1204
721	2333
721	2595
721	3339
721	3469
721	4922
721	4991
722	841
722	942
722	1038
722	1455
722	1557
722	2723
722	4848
723	768
723	1202
723	1582
723	2011
723	2352
723	2397
723	3663
723	3717
723	3817
723	4232
723	4316
723	4654
723	4895
724	1317
724	1870
724	2074
724	2519
724	2610
724	3915
725	1051
725	2614
725	3062
725	4447
726	1271
726	1534
726	2344
726	2634
726	2771
726	2893
726	2923
726	3120
726	4830
727	1409
727	2099
727	2356
728	807
728	876
728	1165
728	1349
728	1765
728	2667
728	3209
728	3727
728	3908
728	4073
729	811
729	1178
729	1270
729	1701
729	1970
729	2009
729	2519
729	3397
729	4292
729	4596
730	875
730	984
730	1187
730	1234
730	1277
730	1306
730	1969
730	2042
730	3439
730	3900
730	4168
730	4493
730	4508
731	1416
731	2315
731	2520
731	2661
731	2836
731	2889
731	2974
731	4434
731	4983
732	923
732	952
732	1171
732	1675
732	1695
732	2198
732	3301
733	1150
733	1160
733	1607
733	1705
733	1914
733	2122
733	2391
733	2631
733	2729
733	2885
733	3087
733	4227
733	4667
733	4711
734	1030
734	2240
734	2452
734	3479
734	3563
735	883
735	1322
735	1414
735	1520
735	1540
735	1764
735	1895
735	2012
735	2195
735	2457
735	2513
735	2849
735	3096
735	3267
735	3401
735	4221
735	4733
736	839
736	1085
736	1496
736	2364
736	2643
736	2745
736	4765
737	749
737	806
737	1451
737	1567
737	2191
737	2680
737	2872
737	4310
737	4973
738	774
738	817
738	2345
738	2503
738	2816
738	3330
738	4136
738	4341
738	4796
739	1841
739	3193
740	862
740	946
740	1061
740	1149
740	1201
740	1298
740	1564
740	1590
740	1626
740	1687
740	1743
740	1796
740	1801
740	1840
740	1864
740	1981
740	2140
740	2379
740	2402
740	2830
740	3212
740	3619
740	3890
740	4068
741	3160
741	3247
741	3344
741	4728
742	765
742	1151
742	1590
742	2205
742	2279
742	2428
742	3155
742	3186
742	3619
743	758
743	1333
743	1649
743	2043
743	2056
743	2723
743	3281
743	3606
743	3679
743	4259
743	4476
743	4647
744	1323
744	1760
744	2196
744	2255
744	2263
744	2726
744	3994
744	4163
744	4254
744	4473
744	4712
745	909
745	1655
745	2292
745	2326
745	2986
746	970
746	980
746	1177
746	1257
746	1579
746	2433
746	2576
746	2636
746	3958
746	4170
746	4434
746	4438
747	1065
747	1429
747	1529
747	1878
747	2376
747	3509
747	3853
747	4069
748	1209
748	1484
748	2050
748	2470
748	3527
748	3870
748	4017
749	958
749	1045
749	1334
749	2415
749	3046
749	3366
749	4390
750	1718
750	2050
750	3266
751	916
751	1434
751	1769
751	1976
751	2558
751	2813
751	3237
751	4332
751	4774
752	815
752	880
752	939
752	1889
752	2565
752	4082
753	754
753	963
753	965
753	1323
753	3787
754	906
754	1234
754	1318
754	1615
754	2140
754	2268
754	3463
754	3673
754	3890
754	4468
755	866
755	1121
755	1564
755	2052
755	4632
756	799
756	1106
756	1231
756	2146
756	2311
756	2502
756	4775
757	1402
757	2841
757	3285
757	4556
757	4844
758	1124
758	1213
758	2933
758	3106
758	4118
758	4233
759	773
759	1107
759	1383
759	2012
759	2039
759	2499
759	2841
759	3433
759	3973
759	4255
759	4258
759	4578
759	4849
760	1022
760	1328
760	1431
760	2736
760	3957
760	4808
761	2512
761	2837
761	3387
762	1384
762	3081
763	779
763	2436
763	2715
764	903
764	930
764	1145
764	1183
764	1260
764	1302
764	1329
764	1640
764	1729
764	1865
764	1913
764	2903
764	2944
764	2998
764	4258
765	881
765	934
765	1021
765	1179
765	1597
765	1642
765	1869
765	2373
765	2951
765	3226
765	3667
765	3836
765	4600
766	857
766	917
766	925
766	1282
766	1372
766	1479
766	1799
766	2054
766	2103
766	2113
766	2958
767	1423
767	1426
767	1619
767	1852
767	1929
767	3068
767	3441
767	3815
767	4174
767	4528
767	4686
768	1994
768	2065
768	4038
769	890
769	999
769	1405
769	2191
769	2252
770	1949
770	2051
770	2516
771	1222
771	3454
771	3647
771	4480
771	4946
772	1970
772	3080
772	3536
773	949
773	1167
773	1249
773	1484
773	1747
773	2656
773	2916
773	3376
773	3893
773	4015
773	4844
773	4996
774	1045
774	1809
774	2688
774	2912
774	3388
774	4685
775	903
775	1426
775	2398
775	3100
775	3104
775	3554
775	3680
775	4182
776	802
776	854
776	1123
776	1135
776	1275
776	1442
776	1612
776	1676
776	1745
776	1785
776	1805
776	2765
776	3097
776	3303
776	4518
776	4789
776	4895
777	781
777	1088
777	3945
777	4356
777	4782
778	904
778	1277
778	1767
778	1907
778	2797
778	3090
778	4093
778	4257
779	1133
779	1189
779	1784
779	1946
779	2115
779	2146
779	2190
779	2303
779	2526
779	2564
779	2758
779	3121
779	3800
779	3954
779	4141
779	4260
779	4964
779	4972
780	853
780	1625
780	1988
781	887
781	1013
781	1373
781	1385
781	2242
781	2318
781	2818
781	3379
781	3489
781	3785
781	3985
781	4293
781	4562
781	4593
781	4673
781	4893
782	860
782	883
782	960
782	1080
782	1279
782	1490
782	1507
782	2006
782	2204
782	4192
782	4274
782	4714
782	4782
783	872
783	1196
783	1289
783	1304
783	1430
783	1611
783	2613
783	3402
783	3525
784	792
784	1068
784	1260
784	1588
784	1665
784	3648
784	4122
785	1112
785	1117
785	1138
785	1311
785	2326
785	2346
785	2796
785	3380
785	3604
785	3807
785	4307
786	1074
786	1168
786	1648
786	1674
786	2097
786	2619
786	4136
787	3466
787	3712
788	940
788	1122
788	1550
788	2441
788	2943
788	3511
789	1055
789	1382
789	1744
789	2423
789	3869
789	4489
790	843
790	932
790	1339
790	1831
790	2519
790	3455
790	3559
790	4439
790	4629
790	4734
790	4740
791	852
791	1833
791	2022
791	2271
791	2538
791	3150
791	3617
791	4650
791	4815
791	4972
792	930
792	1262
792	1764
792	2426
792	2429
792	4078
793	1055
793	1383
793	1476
793	2691
793	3004
793	3328
793	3329
793	3372
793	3479
793	3575
793	3618
793	4755
793	4841
794	947
794	1050
794	1073
794	1107
794	1210
794	1548
794	2057
794	2838
794	3115
794	4308
795	847
795	941
795	1248
795	1398
795	1903
795	2383
796	1475
796	1905
796	2504
796	4758
797	1083
797	3206
797	4220
797	4260
798	876
798	1613
798	1835
798	2089
798	2121
798	3357
798	3596
798	4480
798	4749
799	1606
799	2401
799	2963
799	4105
799	4949
800	869
800	1498
800	1914
800	3415
800	3852
800	3854
801	2001
801	2836
801	2911
801	3262
802	820
802	1001
802	1031
802	1050
802	1320
802	1585
802	1956
802	2657
802	3327
802	4015
802	4218
802	4485
802	4570
802	4738
802	4901
803	907
803	1043
803	1087
803	1108
803	1144
803	1429
803	2372
803	3151
803	3229
803	3280
803	3562
803	3633
803	4333
803	4596
804	943
804	1248
804	2755
804	2835
804	2863
804	3139
804	4181
804	4779
804	4974
805	883
805	2636
805	4012
805	4229
805	4694
806	1559
806	1624
806	1686
806	1689
806	2592
806	2703
806	2948
806	3092
806	3227
806	3259
807	1205
807	1219
807	1289
807	1318
807	1982
807	2128
807	2218
807	2407
807	2843
807	2966
807	3035
807	3205
807	3497
807	3968
808	827
808	991
808	1261
808	1545
808	1565
808	1886
808	1936
808	1956
808	2179
808	2364
808	2521
808	2552
808	3103
808	3195
808	3273
808	3274
808	3766
808	3821
808	4294
808	4957
809	824
809	1398
809	1768
809	2046
809	2546
809	2661
809	3649
810	949
810	1168
810	1393
810	1474
810	1534
810	1583
810	1962
810	2019
810	2196
810	2393
810	2892
810	3712
810	3983
810	4168
810	4188
811	961
811	1119
811	1370
811	1826
811	2346
811	2977
811	3324
811	4278
811	4795
811	4803
812	842
812	982
812	2735
812	3902
812	4705
813	1182
813	2074
813	2145
813	4439
813	4742
814	932
814	1041
814	1093
814	1447
814	1816
814	1987
814	2027
815	2148
815	2308
815	2908
815	2947
815	3877
815	4540
816	2306
817	837
817	1433
817	1500
817	3258
817	3538
817	4818
818	1806
818	2122
818	2237
818	2367
818	3748
818	4051
819	896
819	954
819	1566
819	1574
819	1843
819	1932
819	1975
819	2930
819	3136
819	3198
819	3566
819	3699
819	4317
819	4534
819	4694
820	2129
820	2348
820	2609
820	3280
820	4636
821	953
821	1183
821	1346
821	3326
821	3894
821	4254
822	1114
822	1793
823	1134
823	1560
823	1682
823	2764
823	2797
823	3499
823	4846
824	904
824	2046
824	2292
824	2542
824	2769
824	4370
825	1987
825	2718
825	2800
825	2922
825	3010
825	4374
825	4620
827	861
827	1039
827	2147
827	2355
827	3117
827	3826
827	4238
828	1011
828	2652
828	2738
828	4853
829	915
829	1069
829	2597
829	3276
829	3348
829	3539
830	969
830	974
830	2109
830	2468
830	2540
830	2730
830	2959
830	3711
830	3764
830	4904
831	920
831	1233
831	1258
831	2322
831	3015
831	3130
831	3293
831	4533
831	4903
832	882
832	993
832	1549
832	1898
832	2107
832	2368
832	3077
832	3239
832	3362
832	3787
832	4207
832	4361
832	4530
832	4944
833	1210
833	1782
833	1977
833	2152
833	2328
833	3960
833	4283
833	4706
835	951
835	1034
835	1387
835	1923
835	2630
835	3590
835	3644
835	3957
835	4203
835	4387
835	4900
835	4958
836	1597
836	1771
836	2832
836	3018
837	956
837	967
837	1086
837	2247
837	4897
838	1000
838	1874
838	2534
838	4367
838	4443
838	4482
838	4659
838	4959
839	1470
839	2952
839	2990
839	3291
839	4164
841	1064
842	1242
842	3168
842	4430
842	4748
843	2353
843	2448
843	3218
843	3335
843	3443
844	1019
844	1058
844	1484
844	1808
844	1999
844	3248
844	3563
844	4216
844	4344
845	887
845	1104
845	4269
845	4845
846	987
846	1002
846	3147
846	4146
846	4422
847	1000
847	1939
847	3375
848	1606
848	2814
848	3413
849	1879
849	3126
849	3346
849	3463
849	4192
850	1325
850	1401
850	2414
850	2770
850	4849
851	861
851	1000
851	1049
851	1375
851	1479
851	1770
851	2332
851	2394
851	2546
851	3521
851	4754
851	4880
851	4911
852	894
852	1205
852	1903
852	3119
853	1044
853	1094
853	2192
853	2263
853	2693
853	2814
853	2953
853	3011
853	3228
853	3396
853	3801
853	3987
853	4147
853	4259
853	4309
853	4405
853	4684
854	1324
854	1851
854	2161
854	3055
855	1976
855	2197
855	2578
855	3348
855	4591
856	1077
856	1078
856	1517
856	1661
856	3227
856	4136
856	4283
856	4442
856	4914
857	993
857	1406
857	1812
857	1820
857	2500
857	2514
857	2667
857	2688
857	2844
857	3143
857	4840
858	1091
858	1150
858	1188
858	1385
858	2013
858	2521
858	3026
858	4517
859	1624
859	1876
859	2391
859	2743
859	3065
859	3767
859	4054
860	1403
860	2047
860	3501
860	3725
860	4658
862	1163
862	1400
862	1798
862	1805
862	2020
862	2490
862	4416
862	4656
862	4852
863	879
863	917
863	1213
863	1265
863	2018
863	2078
863	2106
863	2525
863	2784
863	2883
863	3033
863	4766
864	945
864	1363
864	2845
864	4294
864	4658
865	992
865	1322
865	1367
865	1520
865	1688
865	1863
865	2100
866	1219
866	1566
866	1622
866	2081
866	2188
866	2529
866	2742
866	2882
866	2993
866	4325
866	4552
867	1816
867	4182
867	4490
867	4653
868	1362
868	2308
868	4897
869	2622
870	2945
870	3279
870	4202
871	1225
871	1365
871	2077
871	2504
871	2777
871	2802
871	3056
871	3224
871	3398
871	3577
871	3753
872	2283
872	2411
872	3362
872	4900
873	966
873	1510
873	1595
873	1755
873	1850
873	1958
874	2386
874	4514
875	1069
875	1287
875	1313
875	2299
875	2741
875	2748
875	3262
875	3825
875	4470
875	4546
876	1175
876	1433
876	1888
876	2166
876	2659
876	2905
876	3116
876	3404
876	4016
876	4086
876	4450
876	4795
877	1435
877	1821
877	1863
877	2160
878	1003
878	1750
878	2062
878	2442
878	3038
878	3420
879	912
879	976
879	1135
879	1163
879	1233
879	1366
879	1419
879	1561
879	1679
879	1766
879	2344
879	2939
879	3174
879	3806
879	3914
879	4298
879	4884
880	898
880	1461
880	1551
880	2700
880	3132
881	1167
881	1483
881	1880
881	2475
881	2503
881	2538
881	2773
882	1110
882	1231
882	1387
882	1762
882	1866
882	2025
882	2030
882	2139
882	2763
882	2913
882	3093
882	3288
882	4026
882	4288
882	4331
883	1200
883	2962
883	3867
883	4115
883	4315
884	994
884	1384
884	1503
884	1759
884	1838
884	2006
884	2344
884	2669
884	2921
884	3286
884	3916
884	4008
884	4019
884	4140
885	2357
885	2799
885	3345
885	3889
886	1950
886	2154
886	3352
886	3945
887	1829
887	2248
887	3082
887	3508
887	4016
887	4239
887	4684
888	1070
888	1161
889	1254
889	1547
889	2132
889	2633
889	2795
889	2829
889	2937
889	4048
890	1122
890	1160
890	1415
890	1536
890	1560
890	2781
890	4941
891	980
891	1300
891	1959
891	2198
891	2654
891	3134
891	4651
892	3445
893	974
893	1412
893	2798
893	3510
893	4177
894	994
894	1185
894	1697
894	1871
894	1909
894	2033
894	2045
894	2340
894	2417
894	2487
894	3255
894	3600
894	3868
894	4005
894	4542
894	4819
894	4868
894	4930
895	1075
895	1206
895	2130
895	2349
895	2416
895	2605
895	3756
895	4120
895	4408
895	4765
895	4796
896	1047
896	2260
896	4623
897	2934
897	3893
897	4316
897	4538
898	1237
898	1770
898	1824
898	3054
898	3156
898	3905
898	4858
899	1474
899	1868
899	1961
899	2041
899	3019
899	3101
899	4050
900	985
900	1684
900	1757
900	1956
900	2206
900	4713
900	4718
900	4818
901	924
901	1350
901	2225
901	2256
901	2538
901	2585
901	3308
901	4185
901	4291
902	972
902	1220
902	1333
902	1437
902	1481
902	1787
902	1938
902	1979
902	2229
902	2469
902	2638
902	3631
902	3923
902	3929
902	4056
902	4098
902	4105
902	4516
903	1126
903	1154
903	1160
903	1976
903	2799
903	3042
903	3080
903	3885
904	955
904	1778
904	2003
904	2987
904	3196
904	3323
904	3659
904	3695
905	1022
905	1935
905	3017
905	3020
905	3876
905	4223
905	4372
905	4686
906	951
906	1237
906	1340
906	1361
906	2221
906	2695
906	4947
907	2072
907	2110
907	2412
907	2612
907	3039
907	4380
907	4523
908	1031
908	1036
908	1214
908	1488
908	2268
908	4310
908	4566
909	983
909	1082
909	1286
909	1835
909	2461
909	2808
909	2886
909	3324
909	3494
909	3710
909	3983
909	4595
909	4658
909	4930
910	1623
910	2044
910	2806
910	3377
910	4188
910	4312
910	4344
911	972
911	1016
911	1581
911	2164
911	2175
911	2429
912	3427
912	3976
912	4069
913	1112
913	1207
913	1712
913	1930
913	1973
913	2244
913	2544
913	2959
913	3078
913	3429
913	3546
913	4684
913	4710
914	1132
914	1311
914	1387
914	1509
914	1512
914	2396
914	2917
914	3155
914	4455
915	1675
915	1981
915	2781
916	988
916	2870
916	2902
916	3248
916	3804
916	4144
917	955
917	1729
917	2389
917	2693
917	2947
917	3701
917	3873
917	3924
917	4031
917	4192
917	4569
918	1082
918	1233
918	1325
918	1594
918	1730
918	3182
918	3538
918	3551
918	4416
918	4758
919	948
919	1201
919	1229
919	1639
919	2076
919	2089
919	2782
919	3780
919	4157
919	4334
920	1204
920	1960
920	2174
920	3712
920	3965
920	4092
920	4330
920	4455
920	4864
920	4975
920	4992
921	1411
921	1513
921	1896
921	2775
921	3587
921	4584
922	958
922	1457
922	2028
922	2192
922	2446
922	3799
922	3865
922	3877
922	4593
923	1288
923	2186
923	3336
924	981
924	996
924	1906
924	1971
924	2796
924	3003
924	3828
924	4156
925	981
925	1772
925	1816
925	2491
925	3304
925	4242
925	4323
925	4440
925	4483
926	1369
926	1957
926	4268
926	4566
927	1106
927	1236
927	2456
927	4504
928	1488
928	1715
928	2048
928	2879
928	3325
929	2305
929	2424
930	945
930	1255
930	1386
930	1872
930	2525
930	4063
930	4274
930	4554
930	4743
931	1027
931	1341
931	3442
931	4012
931	4020
931	4857
932	1041
932	1697
932	1793
932	2820
932	2933
932	3099
932	3459
932	3520
932	3738
932	3848
932	4530
933	1027
933	1923
933	2201
933	2697
933	3364
933	3584
933	4404
934	3278
934	3618
934	4274
935	1475
935	1824
935	2017
935	2278
935	4891
936	1618
936	1663
936	1827
936	2566
936	2947
936	3780
936	3819
936	4172
937	1679
937	3379
937	3765
937	4368
937	4466
937	4576
938	1228
938	1835
938	2281
938	2297
938	2493
938	3109
938	3156
938	3256
938	3275
938	3992
938	4071
938	4086
938	4217
938	4830
939	975
939	1243
939	1246
939	1580
939	1639
939	1664
939	1789
939	2116
939	2321
939	2867
939	2935
939	3027
939	3349
939	3708
939	4046
939	4109
939	4538
939	4710
940	1218
940	2486
940	2789
940	3178
940	3471
940	3887
941	1147
941	1243
941	1422
941	1979
941	2272
941	2366
941	2539
941	3354
941	3633
941	3724
941	4786
941	4871
942	1058
942	1357
942	2960
942	3571
942	3901
943	952
943	1297
943	1429
943	1489
943	4208
944	1057
944	1113
944	1629
944	1887
944	2268
944	2377
944	2411
944	2478
944	2720
944	2831
944	3478
944	3622
944	3755
944	3980
944	4032
944	4207
944	4241
944	4459
945	1414
945	1442
945	1468
945	1766
945	1954
945	2228
945	2294
945	2492
945	2580
945	2863
945	3052
945	3078
945	3363
945	3468
945	4449
946	1102
946	1105
946	1432
946	1648
946	1755
946	1958
946	2239
946	2793
946	2931
946	3038
946	3101
946	4079
946	4606
946	4727
946	4979
947	1688
947	2280
947	4226
948	1073
948	1131
948	1142
948	1266
948	1577
948	1802
948	1829
948	1868
948	2079
948	2083
948	2616
948	2739
948	3397
948	3488
948	4162
948	4248
948	4263
948	4703
948	4893
948	4940
949	1121
949	1230
949	1654
949	1701
949	1720
949	2157
949	2498
949	2548
949	2648
949	3194
949	3469
949	4050
949	4836
950	1681
950	3062
950	3342
950	4926
951	1077
951	1451
951	1472
951	1502
952	968
952	1922
952	1955
952	1957
952	2606
952	2858
952	3163
952	4037
952	4383
953	1358
953	1685
953	1846
953	1920
953	2305
953	2887
953	3391
953	4537
953	4812
954	1482
954	1608
954	1671
954	1695
954	1732
954	2499
954	2646
954	2737
954	2850
954	4292
955	1476
955	1805
955	2434
955	2928
955	2976
955	3253
955	3334
955	3482
955	3635
955	4332
955	4843
956	1125
956	1299
956	1448
956	3352
956	3782
956	3855
956	3975
956	4258
957	1842
957	1863
957	2547
957	2653
957	2656
957	3408
957	3684
957	3867
958	1245
958	1582
958	2000
958	2004
958	2066
958	2212
958	2726
958	3692
958	3762
958	3768
958	4598
959	975
959	1063
959	1454
959	1978
959	3131
959	3630
959	4077
959	4480
959	4741
959	4830
959	4951
960	1695
960	3858
961	988
962	1194
962	1652
962	1783
962	3236
962	3370
962	3573
962	3683
962	4716
962	4843
963	967
963	1613
963	3768
964	3216
965	1656
965	2163
965	2231
965	2335
965	2714
965	2842
965	3133
965	3908
965	4073
965	4078
965	4340
965	4643
966	1150
966	1736
966	1865
966	2283
966	2550
966	3418
967	1048
967	2180
967	3803
967	4060
968	2027
968	2091
968	2823
968	3842
968	4465
969	1348
969	1516
969	4072
969	4590
970	2400
970	2648
970	3677
971	1035
971	1459
971	2037
971	2686
971	2803
971	2817
971	4691
972	1056
972	1065
972	1436
972	1551
972	1828
972	3227
972	3435
972	3632
972	3818
973	2445
973	3832
973	3966
973	4405
974	1495
974	1629
974	1631
974	1656
974	3793
974	3975
975	1057
975	1249
975	1468
975	1503
975	2587
975	4298
975	4318
976	1579
976	1644
976	1691
976	1973
976	2116
976	3319
976	3496
976	4157
976	4371
977	1321
977	1587
977	2199
977	2472
977	2520
977	3118
977	4085
977	4328
978	1404
978	2317
979	1357
979	1574
979	1785
979	2076
979	3817
979	4832
980	1499
980	2488
980	3437
980	4311
981	1196
981	1419
981	1443
981	1592
981	1943
981	2872
981	2903
981	3057
981	3742
981	3994
981	4888
982	990
982	1017
982	1281
982	1307
982	2227
982	2287
982	2470
982	2572
982	2791
982	3200
982	3763
982	4026
982	4129
982	4249
982	4250
982	4416
983	1092
983	2530
983	3819
984	3514
985	1207
985	2293
985	4179
985	4265
985	4796
985	4826
985	4926
986	1060
986	2010
986	2057
986	3279
986	3972
987	1069
987	1234
987	1759
987	2520
987	2687
987	3271
987	3982
988	1688
988	1764
988	2134
988	3079
988	4269
989	3083
990	1785
990	2681
990	3302
990	3726
990	3759
990	4183
990	4354
991	1252
991	1697
991	2631
991	2662
991	3504
991	3976
992	1992
992	2331
992	2933
992	3500
992	3911
992	4225
992	4678
993	1070
993	1621
993	3196
993	3572
993	4649
993	4672
993	4946
994	1051
994	1686
994	2658
994	2953
994	3033
994	3146
994	3553
994	3934
994	4920
995	1312
995	1366
995	1472
995	1525
995	2670
995	3924
995	4017
996	1149
996	1298
996	1811
996	1855
996	2046
996	2219
996	2681
996	2771
996	4373
996	4688
997	1221
997	2707
997	3118
997	3238
997	3410
997	3638
997	4621
997	4958
998	1012
998	1032
998	1062
998	1682
998	1921
998	3150
998	3378
998	3784
998	4329
998	4457
998	4947
998	4987
999	2647
999	3302
999	3365
999	4256
1000	1686
1000	1903
1001	1236
1001	2967
1002	1090
1002	1367
1002	2640
1002	3601
1002	4056
1002	4657
1003	2285
1003	3234
1004	1480
1004	1535
1004	1923
1004	2021
1004	2786
1004	3892
1005	3473
1005	3550
1005	3749
1005	4181
1005	4618
1006	1321
1006	1455
1006	1622
1006	1739
1006	1994
1006	2269
1006	2989
1006	3177
1007	1081
1007	1294
1007	1308
1007	1339
1007	1364
1007	1592
1007	2035
1007	2150
1007	2415
1007	2887
1007	3157
1007	3276
1007	3808
1007	3872
1007	4081
1007	4439
1007	4677
1007	4877
1007	4986
1008	1126
1008	1291
1008	2164
1008	2304
1008	2709
1008	3073
1008	3485
1008	3590
1008	3925
1008	3955
1009	1174
1009	1328
1009	1415
1009	2048
1009	2258
1009	3232
1009	3621
1009	3779
1009	4884
1010	1091
1010	1117
1010	1537
1010	2487
1010	2801
1010	3343
1011	4942
1011	4961
1012	1095
1012	1788
1012	3090
1012	3950
1012	4280
1012	4448
1013	1451
1013	1493
1013	1574
1013	2132
1013	2141
1013	2540
1013	2910
1013	3049
1013	3079
1013	3361
1013	3693
1013	3946
1013	4089
1013	4147
1014	1026
1014	1270
1014	1368
1014	1420
1014	1469
1014	1673
1014	1679
1014	1781
1014	2155
1014	2294
1014	3799
1014	4645
1014	4806
1014	4856
1014	4907
1015	1020
1015	1211
1015	1224
1015	1309
1015	1318
1015	1427
1015	1603
1015	1653
1015	1893
1015	2724
1015	2790
1015	2910
1015	2919
1015	3190
1015	3410
1015	3535
1015	3598
1015	3667
1015	4458
1016	3281
1017	1155
1017	2425
1017	4220
1018	1115
1018	1198
1018	1517
1018	2641
1018	3247
1018	3436
1019	1522
1019	1926
1019	3044
1019	3608
1019	3995
1020	3406
1020	3592
1020	4065
1020	4468
1021	1118
1021	1141
1021	2071
1021	2887
1021	3703
1021	4880
1022	1768
1022	1965
1022	2953
1022	3271
1023	2682
1023	4432
1024	2003
1024	2783
1024	3042
1024	3790
1024	3852
1025	1278
1025	1411
1025	1703
1025	1834
1025	2128
1025	2890
1025	2959
1025	3336
1025	4446
1025	4779
1026	2593
1026	2982
1026	3005
1026	3459
1026	3753
1026	4194
1027	1490
1027	1748
1027	2942
1028	1740
1028	3530
1029	1173
1029	1229
1029	1296
1029	1372
1029	1421
1029	2270
1029	3287
1029	3674
1029	4234
1030	1817
1030	2052
1030	2825
1030	2963
1030	3822
1030	4089
1030	4169
1030	4355
1031	1033
1031	1642
1031	1759
1031	1776
1031	1815
1031	1991
1031	2194
1031	2593
1031	2873
1031	3199
1031	3374
1031	3523
1031	3887
1031	4000
1032	1383
1032	1552
1032	1593
1032	1643
1032	1896
1032	2445
1032	2452
1032	2529
1032	3107
1032	3147
1032	3287
1032	3528
1033	1772
1033	1849
1033	3580
1033	3913
1033	3942
1033	4841
1034	1351
1034	1719
1034	2233
1034	3030
1034	3243
1034	3288
1034	4477
1035	1190
1035	1365
1035	1738
1035	2258
1035	2428
1035	2569
1035	2575
1035	3689
1036	1138
1036	1591
1036	1892
1036	2748
1036	2837
1036	2888
1036	3953
1036	4256
1036	4717
1037	2170
1037	2619
1037	3492
1037	4868
1038	1162
1038	1818
1038	3053
1039	1145
1039	1363
1039	1684
1039	1795
1039	1866
1039	2100
1039	3592
1039	3620
1039	3631
1039	4256
1039	4583
1040	1253
1040	1551
1040	1584
1040	1616
1040	1787
1040	3625
1041	1193
1041	1557
1041	1570
1041	1843
1041	1886
1041	2251
1041	2480
1041	3312
1041	3343
1041	3519
1041	3788
1041	4851
1041	4912
1042	1235
1042	1643
1042	1665
1042	1742
1042	3556
1042	3898
1042	4134
1042	4336
1043	1253
1043	1337
1043	1667
1043	1882
1043	2041
1043	2834
1043	3006
1043	3200
1043	3466
1044	1814
1044	1939
1044	2461
1044	2812
1044	2875
1044	3419
1045	2119
1045	2915
1045	3886
1045	4431
1046	1088
1046	1162
1046	2025
1046	2111
1046	3464
1047	3159
1047	4669
1048	2554
1048	2868
1048	3248
1048	3974
1049	1060
1049	1502
1049	2172
1049	2773
1049	2909
1049	3268
1049	3373
1049	3636
1051	1223
1051	1407
1051	1529
1051	1723
1051	1793
1051	3183
1052	1163
1052	1693
1052	3602
1052	3793
1053	1944
1053	2561
1053	4942
1054	1146
1054	1376
1054	1937
1054	2179
1054	3425
1054	4211
1055	1322
1055	2288
1055	3487
1055	3858
1056	2802
1056	3913
1056	4269
1058	1962
1058	2123
1058	2320
1058	2556
1059	2031
1059	2585
1059	2964
1059	3228
1059	4095
1059	4537
1060	1425
1060	2176
1060	3478
1060	4767
1060	4831
1061	1447
1061	1602
1061	1752
1061	1915
1061	2152
1061	2291
1061	2660
1061	3542
1061	3703
1061	4660
1062	1382
1062	1536
1062	2575
1062	2867
1062	3067
1062	3203
1062	4767
1063	1330
1063	1831
1063	2390
1063	3114
1063	4230
1064	2104
1064	2113
1064	2210
1064	3000
1064	3413
1064	3480
1064	3790
1064	4508
1065	2478
1065	2714
1065	2943
1065	3354
1065	3849
1065	4296
1065	4412
1065	4992
1066	1526
1066	2087
1066	2710
1066	3674
1066	4881
1067	1335
1067	1561
1067	1569
1067	2109
1067	2191
1067	2356
1067	2419
1067	3815
1068	1071
1068	1142
1068	1285
1068	1440
1068	1654
1068	2350
1068	2351
1068	2413
1068	3134
1068	3160
1068	3213
1068	3595
1068	3711
1068	3858
1068	3937
1068	4092
1068	4524
1069	1142
1069	1830
1069	2301
1069	3723
1069	3797
1070	1928
1070	1943
1070	2228
1070	2657
1070	4447
1071	2177
1071	3662
1071	3814
1071	4185
1071	4507
1072	1079
1072	1587
1072	1909
1072	2334
1072	2818
1072	3582
1072	4535
1073	1263
1073	1749
1073	3951
1073	4899
1073	4976
1074	1148
1074	1252
1074	1255
1074	1541
1074	2186
1074	2259
1074	2492
1074	2900
1074	3054
1074	3415
1074	3507
1074	3615
1074	3854
1074	4377
1075	1790
1075	2067
1075	3588
1075	3785
1075	4102
1075	4881
1075	4899
1076	2087
1076	2101
1076	2885
1076	3003
1076	3099
1076	4310
1076	4925
1077	1156
1077	1282
1077	3364
1078	1269
1078	2027
1079	4994
1080	1523
1080	3600
1080	3827
1080	4433
1081	1826
1081	2010
1081	2287
1081	3277
1081	3635
1081	3941
1081	4101
1081	4280
1082	1219
1082	1467
1082	2062
1082	2074
1082	2555
1082	2933
1082	3325
1082	3668
1082	4159
1082	4307
1082	4743
1083	1212
1083	1985
1083	2046
1083	2355
1083	2462
1083	3967
1083	4434
1084	1216
1084	1406
1084	1496
1084	3255
1084	3396
1084	3497
1084	3685
1084	3773
1084	3928
1085	1341
1085	3802
1085	3970
1086	1283
1086	1284
1086	1447
1086	1546
1086	2979
1086	2995
1086	4098
1086	4212
1086	4339
1086	4564
1087	1356
1087	1450
1087	1554
1087	3808
1087	4196
1087	4408
1088	3228
1088	4353
1089	1152
1089	2984
1089	3623
1089	4473
1090	1441
1090	1670
1090	2121
1090	2432
1090	2677
1090	3367
1090	3722
1090	3738
1091	1117
1092	3773
1093	1542
1094	1231
1094	1428
1094	3152
1095	1644
1095	1809
1095	2189
1095	2430
1095	3207
1095	3568
1095	4164
1095	4629
1096	2138
1096	2204
1096	3086
1096	4227
1096	4569
1097	1353
1097	2255
1097	2393
1097	2675
1097	3366
1097	4161
1098	1530
1098	1862
1098	2045
1098	2380
1098	2604
1098	2631
1098	3518
1098	3759
1099	1279
1099	1584
1099	2301
1099	2621
1099	3190
1099	3937
1099	4437
1099	4722
1100	1481
1100	2482
1101	1983
1101	3072
1101	3439
1101	3465
1102	1464
1102	1601
1102	2822
1102	3122
1102	3861
1102	4250
1102	4627
1102	4642
1103	2886
1103	4162
1104	1316
1104	1410
1104	2009
1104	2178
1104	2628
1104	4479
1105	1267
1105	1516
1105	1659
1105	1753
1105	1936
1105	2331
1105	2345
1105	3271
1105	3688
1105	3746
1105	4215
1105	4229
1106	1381
1106	1981
1106	2316
1106	2717
1106	2788
1106	3216
1106	4413
1106	4648
1106	4985
1107	1143
1107	2169
1107	4634
1108	1111
1108	1256
1108	1749
1108	1757
1108	2094
1108	2793
1108	2855
1108	3380
1108	3730
1108	3834
1108	4438
1109	2099
1109	3125
1109	3400
1109	3738
1110	2207
1110	2567
1110	2887
1110	3131
1110	3373
1110	3778
1110	4108
1110	4794
1110	4845
1111	1417
1111	1877
1111	1926
1111	3145
1111	3742
1112	2743
1112	3516
1112	3849
1113	1401
1113	1609
1113	1892
1113	2021
1113	2189
1113	2369
1113	2988
1113	3076
1113	3620
1113	4859
1114	1671
1114	1727
1114	3357
1114	3889
1114	4310
1114	4543
1115	1296
1115	1366
1115	1565
1115	1906
1115	1930
1115	2439
1115	2463
1115	4662
1116	1510
1116	2705
1117	1753
1117	1996
1117	3108
1118	1938
1118	2018
1118	2056
1118	2918
1118	3104
1118	3223
1118	3275
1118	3480
1118	3662
1118	3701
1118	3729
1118	3810
1118	3959
1118	4752
1119	2193
1119	3610
1120	2591
1120	3959
1120	3985
1121	1452
1121	1988
1122	2865
1122	3280
1122	3548
1122	3760
1122	4125
1123	1510
1123	2439
1123	3043
1123	3250
1124	1507
1124	1840
1124	3141
1124	3738
1124	3996
1125	1300
1125	1481
1125	1577
1125	1704
1125	2472
1125	3476
1125	3562
1125	3702
1125	4626
1126	1174
1126	1266
1126	1644
1126	2180
1126	3247
1126	4224
1127	1271
1127	1409
1127	1599
1127	1624
1127	1961
1127	2159
1127	3417
1127	3673
1127	3685
1127	3802
1127	4237
1127	4694
1127	4843
1128	1131
1128	1198
1128	1379
1128	2004
1128	2085
1128	2330
1128	3165
1128	3239
1129	1296
1129	2190
1129	2642
1129	4116
1130	1404
1130	1737
1130	3288
1130	3750
1130	3886
1130	4523
1130	4718
1131	1168
1131	1318
1131	1667
1131	1869
1131	2007
1131	2857
1131	2936
1131	3082
1131	3146
1131	3278
1131	3958
1131	4279
1131	4309
1131	4442
1131	4756
1131	4888
1132	1196
1132	1896
1132	2211
1132	2303
1132	2504
1132	3242
1132	3395
1132	3942
1132	4472
1133	1556
1133	2154
1133	2387
1133	3114
1133	4459
1134	1248
1134	3094
1134	3334
1134	3338
1134	3434
1134	3682
1134	4478
1134	4580
1134	4646
1134	4951
1135	1376
1135	1419
1135	1517
1135	1746
1135	2276
1135	2838
1135	3174
1135	4223
1135	4347
1135	4740
1136	1196
1136	2236
1136	2318
1136	2322
1136	3050
1136	3052
1136	3139
1136	3253
1136	3435
1136	4055
1136	4222
1136	4923
1136	4925
1137	1356
1137	4206
1138	3013
1139	3113
1139	3165
1140	1635
1140	2040
1140	2048
1140	2774
1140	3732
1140	4240
1140	4849
1141	1174
1141	1274
1141	3061
1141	3101
1141	3628
1141	3783
1141	4270
1141	4508
1143	1278
1143	1487
1143	1540
1143	1651
1143	2349
1143	2909
1143	3790
1143	4232
1143	4435
1143	4602
1144	1527
1144	1712
1144	2787
1144	3662
1144	4067
1145	1331
1145	1581
1145	2485
1145	2711
1145	3011
1145	3227
1145	3264
1145	4024
1145	4312
1146	1183
1146	2131
1146	2385
1146	2488
1146	2727
1146	3960
1146	4129
1146	4186
1146	4330
1146	4780
1147	1161
1147	2548
1147	2901
1147	3486
1148	4781
1149	1279
1149	1424
1149	2400
1149	2473
1149	2788
1149	2815
1149	3338
1149	4175
1150	1420
1150	1823
1150	2288
1150	2766
1150	2816
1150	3408
1150	3562
1150	4439
1151	1356
1151	1543
1151	1766
1151	2577
1151	4304
1151	4679
1151	4871
1152	1177
1152	1538
1152	1907
1152	2652
1152	2752
1152	3327
1152	3329
1152	3754
1152	3948
1152	4062
1153	2501
1153	3185
1155	1459
1155	4012
1155	4993
1156	1248
1156	1711
1156	1957
1156	3604
1156	3977
1156	4214
1156	4323
1156	4481
1157	1789
1157	2489
1157	2704
1157	2760
1157	4153
1158	1322
1158	2240
1158	2623
1158	2731
1158	2836
1158	2877
1158	3181
1158	4746
1158	4747
1159	1418
1159	1476
1159	1708
1159	1719
1159	1844
1159	1976
1159	2841
1159	3691
1159	3737
1159	4541
1159	4726
1160	1393
1160	1650
1160	1743
1160	2382
1160	2413
1160	2902
1160	2924
1160	3121
1161	1966
1161	2587
1161	4676
1162	1204
1162	1586
1162	2280
1162	2377
1162	2446
1162	2815
1162	3078
1162	3665
1162	3788
1163	1338
1163	4959
1164	2267
1164	2287
1164	2484
1164	2572
1164	3436
1164	3734
1164	3737
1164	3887
1164	4213
1164	4545
1165	1224
1165	1371
1165	1810
1165	2356
1165	2667
1165	3528
1165	4578
1165	4580
1165	4707
1166	1905
1166	2289
1166	3513
1166	3846
1167	1286
1167	1717
1167	2640
1167	3428
1167	3992
1168	1425
1168	2133
1168	3056
1168	3149
1168	3806
1169	1847
1169	2000
1169	2352
1170	1335
1170	2286
1170	3402
1170	4161
1171	1312
1171	1342
1171	1473
1171	1633
1171	1729
1171	1755
1171	2171
1171	3340
1171	3585
1171	4304
1171	4542
1172	1334
1172	4738
1172	4922
1173	2429
1173	3964
1174	1876
1174	2770
1174	2798
1174	4007
1174	4190
1174	4707
1175	1187
1175	2380
1175	2778
1175	3135
1175	4771
1176	1180
1176	2666
1176	2804
1176	3283
1177	1967
1177	1969
1177	2015
1177	2201
1177	2738
1177	3749
1177	3853
1177	4409
1177	4608
1179	4830
1180	1875
1180	3070
1180	3153
1180	3540
1180	3943
1180	4104
1181	1336
1181	1786
1181	1836
1181	2042
1181	2244
1181	2373
1181	3720
1181	3917
1181	4555
1182	2637
1182	2999
1182	4519
1182	4537
1182	4664
1183	1303
1183	4349
1183	4908
1183	4952
1184	1320
1185	2440
1185	2821
1185	3063
1185	3263
1185	3416
1185	3690
1185	3758
1185	4247
1186	1466
1186	1607
1186	1816
1186	1888
1186	2325
1186	3498
1186	4753
1186	4973
1187	3016
1187	4125
1187	4233
1188	1330
1188	1720
1188	1910
1188	2170
1188	3367
1188	4168
1188	4511
1189	2466
1189	3956
1190	1247
1190	2839
1190	3180
1190	3610
1190	4634
1191	1203
1191	1379
1191	1477
1191	2214
1191	2926
1191	3712
1192	1386
1192	1698
1192	2399
1192	3424
1192	3660
1192	3996
1193	2014
1193	2255
1193	2423
1193	3232
1194	1239
1194	3643
1195	1338
1195	1754
1195	1773
1195	2446
1195	3218
1195	3314
1195	4237
1195	4306
1195	4362
1195	4712
1195	4811
1195	4938
1195	4961
1195	4995
1196	1727
1196	1885
1196	2595
1196	3512
1196	3672
1197	1646
1197	2731
1198	1272
1198	1763
1198	2630
1198	3282
1198	3353
1198	3364
1198	3770
1198	4199
1198	4352
1199	1369
1200	1278
1200	1295
1200	1364
1200	2536
1200	3122
1201	2406
1201	2838
1201	3363
1201	3878
1202	1473
1202	1647
1202	4537
1202	4571
1203	1256
1203	1635
1203	2443
1203	3920
1203	4763
1203	4905
1204	1207
1204	1485
1204	3704
1204	4053
1204	4584
1204	4772
1205	1647
1205	1716
1205	1745
1205	1763
1205	3222
1205	3570
1205	3827
1206	1631
1206	2451
1206	3464
1206	4044
1206	4900
1207	2279
1207	3129
1208	2222
1208	2694
1208	2988
1208	3371
1208	3489
1208	4306
1208	4613
1209	1320
1209	1325
1209	1557
1209	1567
1209	1796
1209	2405
1209	2673
1209	2685
1209	2692
1209	2731
1209	2759
1209	3168
1209	3422
1209	4475
1209	4509
1209	4532
1210	1799
1210	3476
1210	3826
1211	1839
1211	2823
1211	3014
1211	3305
1211	4771
1212	2067
1212	2358
1212	4418
1213	1611
1213	1736
1213	2005
1213	2577
1213	3018
1213	3470
1213	3877
1213	4859
1214	1306
1214	1453
1214	2349
1214	2386
1214	2448
1214	3104
1214	3171
1214	3351
1214	3429
1214	4528
1215	1495
1215	2878
1215	3026
1215	3875
1215	3989
1215	4392
1216	1273
1216	2605
1216	2952
1216	3536
1216	4521
1216	4792
1217	2265
1217	3260
1217	3587
1218	1968
1218	3159
1219	1494
1219	2170
1219	4060
1219	4710
1219	4802
1220	3676
1221	1385
1221	1390
1221	2132
1221	2819
1221	2977
1221	4157
1221	4511
1221	4702
1222	2326
1222	2404
1222	2553
1222	2975
1222	3195
1223	1662
1223	2553
1223	4544
1224	1237
1224	1290
1224	1439
1224	3068
1224	3186
1224	4222
1225	4149
1225	4739
1225	4914
1226	1306
1226	1406
1226	1651
1226	1667
1226	1678
1226	2202
1226	3121
1226	3142
1226	3330
1226	3358
1226	4793
1227	1692
1227	2140
1227	2491
1227	2671
1227	3078
1227	3510
1227	3824
1227	4001
1227	4026
1227	4160
1227	4379
1228	4142
1228	4421
1229	1252
1229	1596
1229	1745
1229	3547
1229	4077
1230	2036
1230	3194
1230	3539
1230	4142
1231	2293
1231	2506
1231	2719
1231	3217
1231	3243
1232	1358
1232	1487
1232	1779
1232	2054
1232	2097
1232	2158
1232	2502
1232	2822
1232	2927
1232	3922
1234	1478
1234	2529
1234	3176
1234	4913
1234	4970
1235	2168
1236	2013
1236	2664
1237	1506
1237	2893
1237	3450
1237	3626
1237	3864
1237	4002
1238	1635
1238	2214
1238	2708
1238	2945
1238	3452
1238	3897
1239	4240
1239	4809
1240	2035
1240	2256
1240	3421
1240	4681
1240	4988
1241	1449
1241	1991
1241	2096
1241	2403
1242	1504
1242	1743
1242	1751
1242	1908
1242	2131
1242	2163
1242	2503
1242	2638
1242	3319
1242	3457
1242	4184
1243	2521
1243	3243
1243	4634
1244	4864
1245	2257
1245	3538
1245	3857
1245	4486
1246	1317
1246	2021
1246	2251
1246	3461
1246	3846
1246	4936
1247	1360
1247	1407
1247	1421
1247	1604
1247	2785
1247	2882
1247	2923
1247	3052
1247	3736
1247	4010
1248	1717
1248	2580
1248	2974
1248	3401
1248	4683
1249	3246
1249	3556
1249	3701
1249	4133
1250	1553
1250	1620
1250	1956
1250	2194
1250	3776
1250	4752
1251	2136
1251	2420
1252	3970
1252	4062
1252	4106
1252	4207
1253	1262
1253	2085
1253	2094
1253	2500
1253	2829
1253	2896
1253	3163
1254	1832
1254	1994
1254	2060
1254	2134
1255	1685
1255	2190
1255	3927
1256	1526
1256	1802
1256	1939
1256	1995
1256	2354
1256	3329
1256	3493
1256	3645
1256	4094
1256	4098
1257	1315
1257	1373
1257	2041
1257	2112
1257	3896
1257	4759
1258	1326
1258	1734
1258	2783
1259	1646
1259	2564
1259	2994
1259	3823
1260	1426
1260	1553
1260	1763
1260	2023
1260	2393
1260	3746
1260	4449
1260	4702
1260	4896
1261	1378
1261	1808
1261	2186
1261	2602
1261	3124
1262	3287
1263	1340
1263	1949
1263	2339
1263	2716
1263	2781
1263	2867
1263	3108
1263	3573
1263	4078
1263	4619
1264	3410
1264	3809
1265	1401
1265	1530
1265	1721
1265	1783
1265	2039
1265	2142
1265	2335
1265	2378
1265	2575
1265	4929
1266	1302
1266	1531
1266	1947
1266	2035
1266	2391
1266	2591
1266	2633
1266	3942
1266	4262
1267	2145
1267	2376
1267	3212
1267	4278
1267	4851
1268	1446
1268	2557
1268	3060
1268	3234
1268	4252
1269	1640
1270	1588
1270	2657
1270	3440
1270	3792
1271	1515
1271	1750
1271	1928
1271	2057
1271	3712
1271	4974
1272	1327
1272	3110
1272	3772
1272	3922
1272	4797
1273	1929
1273	2757
1273	3251
1273	3285
1273	3829
1273	4186
1274	4563
1275	1400
1275	1619
1276	1319
1276	1838
1276	2030
1276	2196
1276	2792
1276	2852
1276	3079
1276	3246
1276	4049
1277	1784
1277	3859
1278	3476
1278	3566
1278	4011
1278	4453
1278	4962
1279	1741
1279	2069
1279	2904
1279	3164
1279	3783
1279	4253
1279	4955
1280	1331
1280	1483
1280	3199
1280	4503
1280	4919
1281	2261
1281	4633
1282	1311
1282	1548
1282	1776
1282	1899
1282	1944
1282	3575
1282	4491
1282	4733
1283	1752
1283	2340
1283	2666
1283	3397
1284	2095
1284	2388
1284	2703
1284	4097
1284	4929
1285	2060
1285	2091
1285	2392
1285	2526
1285	3877
1285	4717
1286	1392
1286	1808
1286	2068
1286	2077
1286	2695
1286	2941
1287	3739
1288	1862
1288	2206
1288	3943
1288	4088
1288	4430
1289	2513
1290	4148
1291	1547
1291	1606
1291	2029
1291	2078
1291	2144
1291	2219
1291	2672
1291	2847
1291	2869
1291	3781
1291	4252
1291	4680
1292	1784
1292	1848
1292	1882
1292	2194
1292	2235
1292	2340
1292	2450
1292	3674
1292	4624
1293	1893
1293	2509
1293	2572
1293	3004
1293	3834
1294	1357
1294	1440
1294	2079
1294	2284
1294	2949
1294	3610
1294	3838
1294	4444
1294	4526
1294	4658
1295	1562
1295	1758
1295	2707
1295	2855
1295	3101
1295	3122
1295	3930
1296	1827
1296	2362
1296	3515
1297	1469
1297	2297
1297	4888
1297	4985
1298	1621
1298	1726
1298	1914
1298	4766
1299	1377
1299	2102
1299	2841
1300	1929
1300	2292
1300	2357
1300	2928
1300	3537
1300	4263
1301	2502
1301	3178
1301	3353
1302	1972
1302	3088
1302	3341
1302	3446
1302	3649
1302	3871
1302	4015
1302	4044
1302	4647
1303	1560
1303	1725
1303	2314
1303	2413
1303	3393
1303	4736
1304	2086
1304	2219
1304	4221
1305	1773
1305	2460
1305	2603
1305	4744
1306	1621
1306	2865
1306	3326
1306	3402
1306	4015
1306	4146
1306	4325
1307	1677
1307	1807
1307	2050
1307	2338
1307	4033
1307	4345
1308	1388
1308	2768
1308	2932
1308	3382
1308	4309
1308	4884
1309	1335
1309	2131
1309	2430
1309	3106
1309	3112
1309	3504
1309	3664
1309	3748
1309	3864
1309	4414
1309	4808
1309	4941
1310	2171
1310	3254
1311	1832
1311	3496
1311	4459
1311	4703
1312	1482
1312	1486
1312	1652
1312	1934
1312	2658
1312	3532
1313	2086
1313	2972
1313	3076
1313	3218
1313	3478
1313	4561
1314	1388
1314	1498
1314	1864
1314	2007
1314	3698
1315	2246
1315	2541
1315	3189
1315	3303
1316	2013
1316	2570
1316	2914
1316	3491
1316	3598
1316	3607
1316	3815
1316	4207
1317	1726
1317	1791
1317	2464
1317	3245
1317	3318
1317	4765
1318	2033
1318	2340
1318	2450
1319	1424
1319	1514
1319	2199
1319	2312
1319	3430
1319	3474
1319	3534
1320	1527
1320	2461
1320	3352
1320	3467
1320	3677
1321	1937
1321	2172
1321	3445
1321	3912
1321	4272
1322	2104
1322	3445
1322	4884
1323	1834
1323	2364
1324	1913
1324	2566
1324	2607
1324	4570
1324	4711
1325	1375
1325	2511
1325	2899
1325	3182
1325	3904
1325	3934
1326	2057
1326	3322
1326	3832
1327	1347
1327	1588
1327	1929
1328	1370
1328	1496
1328	1897
1328	2055
1328	2218
1328	3082
1328	3186
1328	3399
1328	4137
1328	4245
1329	1728
1329	3398
1329	3467
1330	1422
1330	1669
1330	2140
1330	2613
1330	2687
1330	3829
1330	4175
1330	4222
1330	4328
1330	4503
1330	4585
1330	4697
1330	4786
1331	1449
1331	1633
1331	3677
1332	4099
1333	2275
1334	1576
1334	1767
1334	2049
1334	3240
1335	1546
1335	4673
1336	1424
1336	1533
1336	1542
1336	2460
1336	2481
1336	2804
1336	3211
1336	3658
1336	3863
1336	4040
1336	4228
1336	4436
1336	4938
1337	1952
1337	2254
1337	4910
1338	1384
1338	1438
1338	1446
1338	1773
1338	1789
1338	1948
1338	2804
1338	3317
1338	4357
1338	4623
1338	4814
1339	1723
1339	1942
1339	2310
1339	2314
1339	2432
1339	2980
1339	3452
1339	4383
1340	1718
1340	2843
1340	3908
1340	4997
1341	4211
1342	3850
1342	4198
1343	1448
1343	1804
1343	1919
1343	2806
1343	2846
1343	3181
1343	3239
1343	3577
1343	3591
1344	1573
1344	2142
1344	2161
1344	2857
1344	3593
1344	3702
1344	3724
1344	4550
1344	4603
1344	4645
1344	4672
1344	4887
1345	3605
1345	4308
1345	4378
1346	1684
1346	4867
1346	4955
1347	1504
1347	2550
1347	2919
1347	3460
1347	3715
1347	4101
1347	4111
1347	4373
1348	1351
1348	1360
1348	1471
1348	2083
1349	1457
1349	1571
1349	1793
1349	2489
1349	2584
1349	2629
1349	2634
1349	3973
1350	1633
1350	2291
1351	1401
1351	1444
1351	2316
1351	3729
1352	2081
1352	2496
1352	2916
1352	3326
1353	2153
1353	3375
1353	3636
1354	1746
1354	2959
1354	3634
1354	3710
1354	4570
1354	4714
1354	4872
1355	3319
1356	4447
1357	1944
1357	3223
1358	1964
1358	2175
1358	2452
1358	2762
1358	2890
1358	3389
1359	1890
1359	2929
1359	3455
1359	3894
1360	2527
1360	3760
1361	2489
1361	3053
1362	1760
1362	3157
1362	4403
1363	1395
1363	2504
1364	1888
1364	1938
1364	2120
1365	2375
1366	1680
1367	1519
1367	2140
1367	2231
1367	2383
1367	2790
1367	3430
1367	3987
1367	4870
1368	1849
1368	2371
1368	2749
1368	3490
1369	1657
1369	1825
1369	2408
1369	2859
1369	4270
1370	1871
1370	2157
1370	4264
1371	1561
1371	1636
1371	1689
1371	1867
1371	3133
1371	3150
1371	3212
1371	3325
1371	3540
1371	4150
1372	1701
1372	4021
1373	1523
1373	1572
1373	2053
1373	3599
1374	1419
1374	1576
1374	2318
1374	2831
1374	4822
1375	1442
1375	1804
1375	2053
1375	2266
1375	3192
1375	4205
1375	4984
1376	2010
1376	2394
1376	2717
1376	2848
1377	2335
1377	3565
1378	1895
1378	3328
1379	1695
1379	2907
1379	3029
1379	3822
1379	4289
1379	4931
1380	2528
1381	1657
1381	2484
1381	4248
1381	4478
1382	2667
1382	3533
1382	3900
1382	4461
1383	3163
1383	4254
1384	2000
1384	2297
1384	2299
1384	2315
1384	2401
1384	2612
1384	2846
1384	3816
1384	4040
1384	4898
1384	4920
1385	2743
1385	3071
1386	1463
1386	1603
1386	1889
1386	2098
1386	2560
1386	3111
1386	4046
1387	1546
1387	1769
1387	1866
1387	2245
1387	2756
1387	3085
1387	3559
1387	3891
1387	4999
1388	2853
1388	3950
1388	4835
1389	1839
1389	2606
1389	2657
1389	3146
1389	4533
1390	1431
1390	1650
1390	1777
1390	2151
1390	2468
1390	2560
1390	3376
1390	3458
1390	4639
1390	4653
1392	3949
1393	1455
1393	1681
1393	1780
1393	1891
1393	1933
1393	1954
1393	1984
1393	2047
1393	2214
1393	2375
1393	2391
1393	2545
1393	2751
1393	2793
1393	2918
1393	2995
1393	3207
1393	3219
1393	3370
1393	3617
1393	3628
1393	3652
1393	4678
1393	4740
1393	4865
1394	1404
1394	1717
1394	2970
1394	3014
1394	3123
1394	3265
1394	3980
1394	4479
1396	1728
1396	2404
1396	3861
1397	2035
1397	2276
1397	3119
1397	3657
1397	4612
1398	2247
1398	3002
1398	4435
1398	4842
1399	1911
1399	2056
1399	2966
1399	3109
1399	3131
1399	4042
1399	4753
1400	1645
1400	1713
1400	1839
1400	2702
1400	3081
1400	3504
1400	3935
1401	1456
1401	2127
1401	2313
1402	2879
1402	3049
1403	2151
1403	2758
1403	3844
1403	3970
1403	4182
1403	4244
1404	1758
1404	1978
1404	2215
1404	2278
1404	2376
1404	2459
1404	2860
1404	2961
1404	3172
1404	3351
1404	3358
1404	3681
1404	3984
1404	4161
1404	4248
1404	4584
1405	1623
1405	2389
1405	2733
1405	2790
1405	4025
1405	4452
1405	4650
1406	1844
1406	2268
1406	3998
1407	1746
1407	1996
1407	3801
1408	2293
1408	2491
1409	2382
1409	3607
1409	4334
1409	4902
1410	1494
1410	1639
1410	2306
1410	3454
1410	3932
1410	4176
1410	4594
1410	4933
1410	4997
1411	2547
1411	3856
1411	4271
1411	4342
1411	4865
1412	1478
1412	2025
1412	2304
1412	2313
1412	3305
1412	3356
1413	3296
1414	1643
1415	1427
1415	2295
1415	2869
1415	3553
1416	2289
1416	2322
1416	2440
1416	2604
1416	4773
1417	1625
1417	2785
1417	3138
1417	3763
1417	3953
1417	4032
1417	4655
1418	2603
1418	2752
1418	2851
1418	3087
1418	4761
1419	1863
1419	4067
1420	2078
1420	2349
1420	2655
1420	3390
1421	1836
1421	2689
1422	3938
1423	1759
1423	1814
1423	4787
1424	4076
1425	2251
1425	2608
1425	3609
1425	4016
1425	4252
1425	4896
1425	4936
1426	2217
1426	2358
1426	3061
1426	3493
1426	3766
1426	4977
1428	3323
1428	4221
1430	1508
1430	1565
1430	1800
1430	2105
1430	2693
1430	4464
1430	4928
1431	1765
1431	2973
1431	3011
1431	3108
1431	3563
1431	4972
1432	1642
1432	1817
1432	1857
1432	1948
1432	2575
1432	2650
1432	2858
1432	2862
1432	2961
1432	3082
1432	3299
1432	4993
1433	1691
1433	1754
1433	2541
1434	1464
1434	1627
1434	2143
1434	3899
1434	4670
1436	2191
1436	2664
1436	3153
1436	3932
1436	4206
1437	3009
1437	4043
1438	2493
1438	2723
1438	2969
1438	4314
1439	1881
1439	3794
1439	4810
1440	1869
1440	3641
1440	3786
1441	1989
1441	3215
1442	1452
1442	3009
1443	1886
1443	2689
1443	3075
1443	4532
1444	2295
1445	1716
1445	3002
1445	3719
1445	4115
1446	1818
1446	2792
1446	3219
1446	3256
1446	3281
1446	4719
1447	2779
1447	2812
1447	3256
1448	2093
1448	3527
1448	4925
1449	1666
1449	2451
1449	2817
1449	3629
1449	3717
1449	4662
1450	4693
1450	4823
1451	1821
1451	1884
1451	2719
1451	3932
1451	4415
1452	2212
1453	1671
1453	1898
1453	2094
1453	2356
1453	3016
1453	3722
1454	1466
1454	1628
1454	1680
1454	1784
1454	1841
1454	2123
1454	2307
1454	2680
1454	3383
1454	4390
1455	3386
1455	4597
1456	1930
1457	1791
1457	3030
1457	3039
1457	4163
1458	3205
1458	3364
1458	3524
1458	3841
1458	4285
1459	1722
1459	2095
1459	2410
1459	2784
1459	4370
1460	1680
1460	1936
1460	2177
1460	2371
1460	2938
1460	3035
1460	3772
1461	1968
1461	2000
1461	2037
1461	2336
1461	2612
1461	3105
1461	4163
1461	4762
1462	2239
1462	2879
1463	1613
1463	1966
1463	2222
1463	2974
1463	3264
1463	3441
1463	4730
1463	4882
1464	1676
1464	1837
1464	4153
1464	4828
1465	2073
1465	2329
1465	2415
1465	3317
1465	3332
1465	3838
1465	4001
1465	4909
1466	1912
1466	2358
1466	2545
1466	2627
1466	4063
1466	4956
1467	1989
1468	2388
1468	2885
1468	3133
1468	3258
1468	3572
1468	4030
1468	4227
1469	1523
1470	3794
1470	4324
1471	2919
1471	3486
1471	3813
1471	4731
1472	3415
1473	1541
1473	1555
1473	2130
1473	4360
1474	2333
1474	4666
1474	4692
1475	1982
1475	2064
1475	2112
1475	2857
1475	4099
1475	4957
1476	1609
1476	1630
1476	1928
1476	2011
1476	2549
1477	1861
1477	2548
1477	2721
1477	3188
1477	3688
1477	4681
1478	2858
1478	4696
1479	1738
1479	2453
1479	4609
1480	3228
1481	2160
1481	3384
1481	3686
1482	1805
1482	2083
1482	3594
1482	4754
1483	3945
1483	4633
1483	4985
1484	2062
1484	3642
1485	2174
1486	2950
1487	2595
1487	3350
1487	3367
1487	4627
1488	1622
1488	2563
1488	2746
1488	4474
1488	4841
1489	1830
1489	1879
1489	1906
1489	1931
1489	3162
1489	3743
1489	3770
1489	4035
1490	1995
1490	2608
1490	2886
1490	3236
1490	4741
1491	1801
1491	2518
1491	2780
1491	2989
1491	4265
1491	4751
1492	1829
1492	1996
1492	2593
1492	2848
1492	3489
1492	4550
1492	4684
1493	1910
1493	2011
1493	2414
1493	2571
1493	4860
1493	4995
1494	1731
1494	2066
1494	2463
1494	2499
1494	2572
1494	2773
1494	3117
1494	3324
1494	4469
1495	1850
1495	3127
1495	3483
1495	3624
1496	2620
1497	3556
1498	1663
1498	2200
1498	2837
1498	3700
1498	4372
1498	4590
1498	4994
1499	2022
1499	3548
1499	4068
1500	3075
1500	4236
1500	4282
1501	3458
1501	4880
1502	1881
1502	2154
1502	2225
1502	2697
1502	2794
1502	3737
1502	3870
1503	3289
1504	1822
1504	1916
1504	2019
1504	4273
1504	4435
1505	1660
1505	1669
1505	3139
1505	3707
1506	2701
1506	3226
1506	4778
1507	2479
1507	2984
1507	3939
1507	4356
1508	1511
1508	2072
1508	2944
1508	3839
1508	4455
1509	3205
1509	4195
1510	2705
1510	3958
1510	4887
1511	1962
1512	1853
1512	2075
1513	1702
1513	2401
1514	2447
1514	2581
1514	4230
1515	1693
1515	3717
1516	1529
1516	1601
1516	2052
1516	2088
1516	2384
1516	2668
1516	2964
1516	3206
1516	4052
1516	4384
1516	4949
1517	3898
1517	4279
1517	4571
1517	4664
1517	4894
1517	4980
1518	2085
1518	3159
1518	3166
1518	3837
1518	4628
1519	2457
1519	3209
1519	3436
1519	4155
1520	3929
1521	1582
1521	1848
1521	2673
1521	2978
1522	2435
1522	2533
1523	1687
1523	1840
1523	1858
1523	1907
1523	1977
1523	2143
1523	2173
1523	2385
1523	2520
1523	2793
1523	3028
1523	3096
1523	3663
1524	1628
1525	1768
1525	3190
1526	3377
1526	3725
1527	1846
1527	1955
1527	2191
1527	2909
1527	3128
1527	4172
1529	1647
1529	2039
1529	2556
1529	3595
1529	4083
1529	4378
1529	4904
1531	1719
1531	2458
1531	2490
1531	2646
1531	3323
1531	3525
1532	3043
1532	3549
1532	4346
1533	1980
1533	2012
1533	2667
1533	4330
1533	4980
1534	2183
1534	3074
1534	3565
1535	1820
1535	2127
1535	4574
1536	1549
1536	2008
1536	3172
1536	4051
1536	4975
1537	3065
1537	4117
1537	4676
1538	1813
1538	1901
1538	1974
1538	2324
1538	2343
1538	2485
1538	3078
1538	3559
1538	3851
1539	2419
1539	2666
1539	3943
1540	2052
1540	2267
1540	2985
1540	3709
1540	4396
1540	4460
1541	1591
1542	1869
1542	2138
1542	3811
1542	4266
1542	4750
1543	2004
1543	2500
1543	3620
1543	3626
1543	3771
1543	4832
1544	1545
1544	1741
1544	2464
1544	2568
1544	2849
1544	3588
1544	4184
1544	4990
1545	1652
1545	1753
1545	1820
1545	2409
1545	3211
1545	3802
1545	3816
1545	4455
1546	2982
1546	4132
1546	4141
1546	4487
1547	2089
1547	3023
1547	3094
1547	4861
1548	1787
1549	1860
1549	2337
1549	2945
1549	3044
1549	3800
1549	4664
1549	4916
1550	2708
1550	3002
1550	4696
1551	2049
1551	2321
1551	2497
1551	4172
1552	1871
1552	2062
1552	2833
1552	3095
1552	4547
1553	2625
1553	4246
1553	4644
1553	4777
1554	3152
1554	4110
1554	4226
1555	2169
1555	2448
1555	2656
1555	2795
1556	1987
1556	2250
1556	2957
1556	3077
1556	3121
1556	4049
1556	4244
1556	4513
1557	1657
1557	1671
1557	2216
1557	2309
1557	2399
1557	2624
1557	2981
1557	3529
1557	3906
1558	2331
1558	4921
1559	2051
1559	3005
1559	4806
1560	1716
1560	2061
1560	2070
1560	2809
1560	2831
1560	3866
1560	3963
1560	4049
1560	4875
1561	1593
1561	1916
1561	2088
1562	3484
1562	4915
1563	1724
1563	2008
1563	3354
1563	4978
1564	1691
1564	3270
1564	4103
1565	1912
1565	2187
1565	2601
1565	2621
1565	2725
1565	3307
1565	3345
1565	3766
1565	4177
1566	4475
1567	2262
1567	2434
1567	3241
1568	3267
1568	3388
1568	3889
1569	2753
1569	3006
1569	3724
1570	2165
1570	2833
1572	1649
1572	1794
1572	2388
1572	3820
1573	2750
1573	2768
1573	3020
1573	3036
1574	1672
1574	2359
1574	2436
1574	3852
1574	4498
1574	4712
1574	4829
1575	2299
1576	2273
1576	4599
1576	4769
1577	1986
1577	3666
1578	2805
1578	4033
1578	4691
1579	4628
1580	2137
1580	3215
1581	1857
1581	1925
1581	2131
1581	4079
1582	2676
1582	3541
1582	4930
1583	4464
1583	4697
1584	2111
1584	2183
1584	2756
1584	2953
1584	2957
1584	3245
1584	3526
1584	3539
1585	2212
1585	3918
1585	3927
1585	3936
1585	4013
1586	2586
1586	3656
1586	3690
1587	2965
1587	3961
1588	2032
1588	2741
1588	2947
1588	3278
1588	3816
1588	4605
1588	4949
1589	3644
1589	4551
1590	2532
1590	3245
1590	4560
1591	1600
1591	1662
1591	1707
1591	1949
1591	2226
1591	2686
1591	2901
1591	3280
1591	4047
1592	1730
1592	2178
1592	2665
1592	2894
1592	2931
1592	3341
1592	4774
1593	1699
1593	2932
1593	3579
1593	4712
1593	4839
1594	1822
1594	2165
1595	1769
1595	2917
1595	3385
1595	3997
1596	4447
1597	1864
1597	2556
1597	3117
1597	4118
1597	4238
1598	1878
1598	4368
1598	4614
1599	1854
1599	2872
1599	4495
1599	4891
1601	3271
1601	3409
1601	3681
1601	4116
1601	4599
1601	4656
1601	4797
1602	2591
1603	1865
1603	2545
1603	3233
1603	4069
1603	4488
1604	1640
1604	2286
1604	2404
1604	2449
1604	3167
1604	3733
1604	4660
1604	4995
1605	2230
1605	2282
1605	2640
1605	4190
1605	4433
1605	4619
1605	4822
1605	4990
1606	1924
1606	2165
1606	2800
1606	3360
1606	3541
1606	4023
1606	4039
1606	4853
1607	2300
1607	2912
1607	4839
1607	4968
1608	4210
1609	3926
1610	1630
1610	2585
1610	3009
1611	1779
1611	2773
1611	2881
1611	3024
1611	3202
1611	4155
1612	1686
1612	2629
1612	2898
1612	3089
1612	3407
1612	3790
1613	2075
1614	1818
1614	2322
1614	3705
1614	3750
1614	3847
1614	3980
1615	3226
1615	3477
1615	3727
1615	3754
1615	3921
1616	1689
1616	2379
1616	3406
1617	1735
1617	1873
1617	2427
1617	3565
1617	4291
1618	3441
1619	1813
1619	1971
1619	2272
1619	4400
1620	1690
1621	2572
1621	2827
1621	2958
1621	3069
1621	3138
1622	1721
1622	1874
1623	1973
1623	2562
1623	3704
1624	2526
1624	4231
1625	2589
1626	1821
1626	2770
1626	2809
1626	3716
1627	2614
1627	2970
1627	3273
1627	3886
1627	4361
1628	1980
1628	2280
1628	2300
1628	2617
1629	1720
1629	2278
1629	2337
1629	2541
1629	4671
1630	2730
1630	3059
1631	1775
1631	2496
1631	3576
1631	3726
1631	3755
1631	4060
1631	4329
1631	4990
1632	1753
1632	1779
1632	2567
1632	2895
1632	3351
1632	3717
1633	2394
1633	2949
1633	3612
1633	4403
1634	3393
1634	4262
1634	4364
1634	4391
1634	4869
1635	3424
1636	1736
1636	2182
1636	3335
1636	3993
1636	4394
1637	4892
1637	4912
1638	2031
1638	2562
1638	4320
1639	1914
1639	2444
1639	2645
1639	2780
1639	4243
1640	1762
1640	1815
1640	2385
1640	2395
1640	2488
1640	2763
1641	2480
1641	2672
1641	2714
1641	3350
1641	3730
1641	4554
1641	4621
1641	4924
1642	2055
1642	2200
1642	2963
1643	2740
1643	3059
1643	3484
1643	3833
1644	1952
1644	3003
1644	4409
1645	2139
1645	2152
1645	2594
1645	2936
1645	3741
1646	3243
1647	3350
1648	2437
1648	3154
1648	3473
1648	3570
1649	2415
1649	2653
1649	3541
1650	2267
1650	2433
1650	2603
1650	2962
1650	3185
1650	4292
1650	4509
1650	4852
1651	2072
1651	2159
1651	3384
1651	3993
1651	4291
1652	3019
1652	3759
1652	4785
1653	2626
1653	2702
1653	3697
1654	1847
1654	1876
1654	2113
1654	2774
1654	2830
1654	2914
1654	3324
1654	4366
1655	1812
1655	2343
1655	2666
1655	3063
1655	3999
1655	4777
1655	4862
1656	3419
1656	3428
1656	4265
1657	1947
1657	2083
1657	2355
1657	2482
1657	3655
1657	3824
1658	1759
1658	2181
1658	3608
1658	4317
1658	4692
1658	4990
1659	1887
1659	2846
1660	1903
1660	2132
1660	2523
1660	3497
1660	4473
1661	2839
1661	3990
1662	1884
1662	2453
1662	3766
1662	3896
1662	4976
1663	2236
1664	4621
1665	3462
1665	3647
1666	2006
1666	2886
1666	4838
1667	1670
1667	1904
1667	1936
1667	2127
1667	2826
1667	2913
1667	3255
1667	4342
1667	4459
1668	4232
1669	4043
1670	3839
1671	1947
1671	2030
1671	2273
1671	2863
1671	2875
1671	3240
1672	1999
1672	4380
1672	4442
1673	2339
1674	2144
1674	3708
1674	3916
1674	4614
1675	2316
1675	3736
1675	4452
1676	4613
1677	4055
1678	2678
1678	2826
1678	3307
1678	3889
1679	2113
1679	2817
1679	4321
1680	1730
1680	2250
1680	2549
1680	2843
1680	3200
1680	4685
1681	1901
1681	2535
1681	3001
1681	4488
1681	4630
1682	4560
1683	2039
1683	2943
1683	3775
1684	1837
1684	2049
1684	2541
1684	2986
1684	3144
1684	3603
1685	3465
1685	3933
1685	4548
1686	1917
1686	3064
1686	3475
1687	1709
1687	2263
1687	2338
1687	2596
1687	4552
1688	1696
1688	1890
1688	3788
1688	4515
1688	4731
1688	4821
1689	3278
1689	3849
1689	4553
1690	2965
1690	3487
1691	1750
1691	3189
1691	3914
1691	4837
1691	4937
1692	2274
1693	1760
1693	1880
1693	2216
1693	4011
1694	4556
1696	1761
1696	2248
1696	2438
1696	2679
1696	2896
1696	3035
1697	3872
1697	4765
1697	4895
1698	3240
1698	4840
1699	1980
1699	1997
1699	2735
1701	2632
1701	2740
1701	2763
1702	3307
1703	4953
1704	2926
1704	4277
1704	4864
1705	2506
1705	4338
1705	4348
1706	2633
1706	2978
1706	3963
1706	4585
1707	1909
1707	1988
1708	1735
1708	2968
1708	3812
1710	2268
1711	2120
1711	2880
1711	4904
1713	2123
1713	2416
1713	3304
1713	3593
1713	4160
1713	4697
1714	1933
1714	2533
1714	2583
1714	2801
1714	3230
1715	4231
1715	4284
1715	4747
1716	2167
1716	2994
1716	4397
1717	1725
1717	2240
1718	3058
1718	3258
1718	3411
1718	3466
1718	3813
1719	2438
1719	2976
1719	3243
1719	3629
1719	3775
1719	4460
1720	3141
1720	4538
1722	4412
1722	4764
1722	4964
1723	2834
1723	2971
1723	3488
1723	4538
1724	2471
1724	3545
1724	4210
1725	2343
1725	2703
1725	2866
1726	2032
1726	2710
1726	3618
1726	4318
1727	3289
1727	3359
1727	4166
1727	4826
1728	1825
1728	3016
1728	3675
1729	3394
1731	2023
1731	2396
1731	2639
1731	4879
1732	1841
1732	2333
1732	2558
1732	3824
1732	4670
1732	4693
1733	2567
1733	2584
1733	2592
1733	3292
1733	4047
1733	4842
1734	1939
1734	2208
1734	3700
1735	2277
1735	2730
1735	4333
1736	2724
1737	2325
1738	1917
1738	2290
1738	3343
1739	3399
1739	3838
1739	4438
1740	1889
1740	4364
1741	2230
1741	4393
1742	3340
1742	4870
1743	2173
1743	3006
1743	4241
1743	4567
1744	2601
1745	3135
1745	3602
1745	4215
1745	4365
1746	2253
1746	3386
1746	4179
1747	1935
1747	3679
1747	4371
1748	2611
1748	3279
1748	3610
1748	4074
1749	1981
1749	2274
1749	2338
1749	2395
1749	2785
1749	3186
1750	1762
1750	4527
1751	4687
1752	3526
1755	2276
1755	3780
1755	4355
1756	2091
1756	2188
1756	2308
1756	2348
1756	3145
1756	3625
1756	3810
1757	1783
1757	3132
1759	2026
1759	2474
1759	2926
1761	2108
1761	3057
1761	3623
1761	4580
1762	2068
1762	2229
1762	2294
1762	3697
1762	4126
1762	4943
1763	4441
1764	4132
1765	2353
1765	3213
1765	4497
1766	2057
1766	2355
1766	2842
1766	3177
1766	3392
1767	2877
1767	3060
1767	3303
1768	2199
1768	2240
1768	2471
1768	3037
1768	3415
1768	3737
1768	4062
1768	4172
1768	4363
1769	1858
1769	4158
1770	3983
1771	2282
1771	3150
1771	3774
1771	4319
1771	4847
1772	3721
1773	2876
1773	2922
1773	3437
1773	3471
1773	3668
1774	3620
1774	3853
1775	1953
1775	2815
1776	2184
1776	3833
1777	1930
1777	2990
1777	3018
1779	2424
1779	2786
1780	4933
1781	3322
1782	2489
1782	3697
1782	4350
1783	2492
1783	2798
1784	2047
1784	4776
1785	2905
1785	3727
1786	2517
1786	4080
1787	3031
1788	1897
1788	2236
1788	2646
1788	3791
1788	4487
1788	4600
1789	2374
1789	2497
1789	3750
1789	4078
1790	2639
1791	3460
1791	4957
1792	2963
1792	3025
1792	3573
1793	2663
1793	2741
1793	3616
1795	2533
1796	3074
1797	1832
1797	2444
1797	2637
1797	2745
1797	2972
1797	3581
1797	4139
1800	2209
1800	4410
1801	2253
1801	3113
1801	3732
1804	2350
1805	2758
1805	3660
1806	2245
1806	2467
1806	3094
1806	3205
1806	3927
1806	4143
1807	2300
1807	3903
1807	3981
1807	4451
1807	4533
1808	2332
1808	3942
1808	4369
1808	4692
1809	4110
1810	4303
1811	2750
1811	2772
1811	2807
1811	3041
1811	4950
1812	2262
1812	2426
1812	2474
1812	3063
1812	3221
1812	3383
1812	4609
1813	3199
1813	3262
1814	4296
1814	4647
1814	4713
1815	2051
1815	2989
1815	3968
1815	4362
1816	2063
1816	2135
1816	2514
1816	2777
1816	2925
1816	2929
1817	1866
1817	3393
1820	1950
1820	2272
1820	2414
1820	3709
1820	3937
1821	4251
1822	1951
1822	2015
1822	2233
1822	2623
1822	2626
1822	2965
1822	3431
1822	3662
1822	3692
1822	3713
1822	4129
1824	3092
1824	3556
1824	3939
1824	4981
1825	3829
1826	4893
1827	4246
1827	4854
1828	2805
1828	3855
1829	1875
1829	2854
1829	3368
1829	3612
1829	4382
1829	4534
1829	4764
1831	4653
1832	2898
1832	3671
1833	2647
1833	4553
1834	2054
1834	2399
1834	3954
1834	4808
1835	2732
1835	3909
1835	4725
1836	1913
1836	1918
1836	3723
1836	4188
1837	1932
1837	1993
1837	2178
1837	2418
1837	3019
1838	4004
1838	4090
1839	3616
1839	4535
1840	3299
1841	2839
1841	3009
1841	3042
1841	3382
1841	3517
1841	3866
1842	2455
1842	2476
1842	2954
1842	3934
1843	2990
1843	4876
1845	4724
1846	1878
1846	2101
1846	2634
1846	2680
1846	4946
1847	2962
1849	3542
1849	4091
1850	3526
1851	2249
1851	3232
1851	4145
1851	4970
1852	2659
1852	2747
1853	2698
1853	2866
1855	2427
1856	1974
1856	3053
1856	3445
1856	3769
1856	4587
1857	2676
1857	2830
1858	1926
1858	1974
1859	2009
1859	4363
1859	4771
1861	2644
1861	2663
1861	2957
1861	3258
1861	4259
1862	2442
1862	3235
1862	3678
1862	3909
1862	4179
1862	4811
1863	2531
1863	2625
1863	4024
1863	4424
1864	2058
1864	2265
1865	4200
1866	2059
1866	2465
1866	2638
1866	2884
1866	3043
1866	3229
1866	4359
1866	4815
1866	4901
1867	2802
1867	3301
1867	4596
1868	2284
1868	2449
1868	3060
1868	4200
1869	1973
1869	2734
1869	3141
1870	2842
1870	3197
1870	3250
1870	3272
1870	3466
1870	4070
1870	4306
1870	4798
1870	4903
1871	2360
1871	3465
1873	1933
1873	2475
1873	2731
1873	2818
1873	3875
1873	4683
1874	3195
1875	3149
1875	4285
1875	4445
1875	4592
1875	4861
1876	2879
1877	4054
1878	1920
1878	1983
1878	2002
1878	2181
1878	2341
1878	2517
1878	3047
1878	4715
1879	2259
1879	2415
1879	2507
1879	3022
1879	4878
1880	1906
1880	2920
1881	1908
1882	1926
1882	2225
1882	2434
1882	2892
1882	3627
1882	4211
1882	4545
1883	3152
1883	4328
1884	3486
1884	4028
1884	4782
1884	4796
1885	2203
1885	2559
1885	2921
1885	3368
1887	1894
1887	4168
1889	2611
1889	2835
1889	2870
1889	3690
1889	3711
1889	3845
1890	4303
1891	2565
1891	4205
1892	2075
1892	2709
1892	3536
1892	4191
1893	2130
1893	2564
1895	2239
1896	2598
1897	2636
1897	3204
1897	3851
1897	4133
1898	2397
1898	2509
1898	2584
1898	2951
1898	3698
1898	3977
1898	4608
1899	2660
1899	4331
1899	4385
1899	4950
1900	2477
1900	4926
1903	2642
1903	3506
1903	4009
1904	2866
1904	3221
1904	3442
1904	3973
1904	4046
1904	4230
1904	4704
1904	4931
1906	2210
1906	2670
1906	3835
1907	2711
1908	2396
1909	2498
1909	3266
1909	3732
1909	4001
1909	4060
1909	4143
1910	2357
1910	2405
1910	4298
1910	4519
1912	3381
1913	2166
1913	2493
1914	2742
1914	3304
1914	3438
1914	3807
1914	3811
1914	3897
1914	4009
1914	4066
1915	2624
1916	2581
1917	2003
1917	4136
1918	2028
1918	2033
1918	2038
1918	3851
1918	4769
1919	2327
1919	3974
1919	4836
1920	2678
1920	3515
1920	3849
1920	4030
1921	3173
1921	3632
1921	3748
1922	2655
1922	3059
1922	4327
1923	4870
1924	3446
1925	1950
1925	2150
1925	2211
1925	3017
1925	3337
1925	4397
1926	2005
1926	3102
1927	2225
1927	3035
1927	3068
1927	3080
1927	3662
1927	4546
1928	3242
1929	2026
1929	2994
1930	3315
1930	4003
1931	4109
1932	2141
1932	2781
1932	4156
1932	4413
1933	2761
1934	1937
1934	2325
1934	2711
1934	3274
1934	4063
1934	4931
1935	2641
1936	2860
1936	2996
1936	3095
1936	3294
1937	4577
1938	2195
1938	3126
1940	2198
1941	3956
1941	4058
1941	4685
1942	3362
1944	4897
1945	2193
1945	2262
1945	3578
1946	1986
1946	2126
1946	2991
1947	1998
1947	2226
1947	4057
1948	4867
1949	2861
1949	3540
1949	4107
1949	4559
1951	2607
1951	2889
1951	4756
1952	2676
1952	2985
1952	3229
1952	3426
1952	3881
1952	4691
1954	3881
1955	4322
1957	2524
1957	4963
1958	2616
1958	4136
1960	3084
1960	3761
1960	4004
1960	4049
1961	2304
1961	2425
1961	2476
1961	3607
1962	4408
1963	3302
1963	4534
1964	2118
1965	2876
1965	3300
1966	2961
1967	3762
1968	3130
1968	3182
1968	4049
1969	1995
1969	2025
1969	2368
1969	2383
1969	2477
1969	2956
1969	3195
1969	3874
1969	4463
1970	1989
1970	2109
1970	2506
1970	2719
1970	2844
1970	3341
1971	3514
1971	3956
1971	4102
1971	4150
1972	2816
1972	3547
1972	3838
1972	4304
1974	2465
1974	2912
1974	3792
1975	2200
1975	2563
1975	2736
1975	3276
1975	3333
1976	2392
1976	2557
1977	4718
1978	2766
1978	4408
1979	4850
1980	2059
1980	2168
1980	2175
1980	3547
1980	4265
1980	4283
1981	2004
1981	2365
1981	2423
1981	3205
1982	2252
1982	3120
1982	4261
1982	4854
1983	2550
1983	2684
1984	2412
1984	3617
1984	4246
1984	4382
1984	4389
1984	4502
1984	4712
1984	4879
1985	2381
1985	2978
1985	3381
1985	3642
1986	2074
1986	2325
1986	2996
1987	2349
1987	2419
1987	3821
1988	2147
1988	3007
1988	3433
1988	3520
1988	3522
1988	4516
1989	2942
1989	3645
1989	4937
1990	2137
1992	2531
1992	3680
1993	2090
1993	2442
1993	2821
1993	2986
1993	3155
1993	3214
1993	3614
1993	3693
1993	3891
1993	4633
1993	4866
1994	2180
1994	2340
1994	2547
1994	3290
1994	3729
1994	4565
1994	4575
1995	2260
1995	2555
1995	3023
1995	3650
1996	2059
1996	2363
1996	2559
1996	3330
1996	3568
1996	4053
1997	2122
1997	2755
1997	4592
1999	2266
1999	2438
1999	2787
1999	2855
1999	3166
1999	4410
1999	4855
2000	2825
2000	4192
2001	2133
2001	3143
2001	3162
2001	3421
2002	3194
2002	4208
2002	4519
2003	2747
2004	2807
2005	3105
2007	2740
2007	2858
2007	2898
2007	3245
2007	4456
2007	4965
2008	2351
2009	3449
2010	3340
2010	4469
2011	2643
2011	2749
2011	3290
2011	3843
2011	4310
2011	4681
2011	4817
2012	2580
2012	2688
2012	3252
2012	3699
2012	3923
2012	4701
2012	4709
2013	2077
2014	2900
2014	2921
2014	3519
2015	4194
2016	2532
2016	2951
2016	2977
2016	3032
2016	4276
2016	4474
2017	3450
2017	4107
2018	3127
2019	2029
2019	2999
2019	4837
2020	2669
2020	2935
2020	2975
2020	3357
2020	3504
2020	4173
2020	4713
2021	2287
2021	2870
2021	3310
2021	4004
2021	4594
2021	4617
2021	4735
2022	2380
2023	2026
2023	3291
2023	3561
2023	3800
2023	3874
2023	4228
2024	2114
2024	2565
2024	3567
2025	2856
2025	3075
2026	3014
2026	3319
2026	3724
2026	4415
2027	3139
2028	2306
2028	2462
2028	4808
2028	4809
2029	2573
2029	2810
2029	4718
2031	2732
2031	3241
2032	3193
2033	3999
2033	4061
2034	3460
2035	2115
2035	2450
2035	3251
2035	3609
2036	4869
2037	2494
2038	2454
2038	2762
2038	3772
2038	4056
2039	2671
2039	3874
2040	3561
2040	4314
2040	4423
2041	2790
2041	4433
2041	4971
2042	2775
2042	2823
2042	2930
2043	2618
2044	4027
2045	3346
2045	3684
2047	2440
2047	3438
2047	4627
2048	2683
2050	3174
2051	2102
2051	2451
2052	2985
2052	3173
2053	2921
2053	3022
2053	4804
2054	2733
2054	3197
2055	3398
2055	4641
2056	2891
2056	2970
2056	3698
2056	4613
2057	3254
2057	4936
2058	2101
2059	4397
2060	2368
2060	2514
2060	2522
2060	3450
2060	4059
2060	4077
2060	4217
2060	4501
2060	4969
2061	4784
2062	3305
2062	3798
2062	4108
2062	4833
2063	2663
2063	2681
2063	3574
2063	3977
2063	4561
2065	2311
2065	2516
2065	2987
2065	3422
2066	3219
2066	3447
2067	2248
2067	2328
2067	3070
2067	3826
2067	4413
2067	4823
2068	2123
2068	2334
2068	2357
2069	4011
2069	4320
2070	3838
2070	4892
2071	3291
2071	3321
2072	2146
2072	2203
2072	2900
2072	3058
2072	3505
2072	4764
2073	2719
2073	3169
2074	4948
2075	4424
2076	3023
2076	4519
2078	3138
2078	4492
2079	2249
2079	3184
2080	2497
2080	3551
2080	3719
2080	4350
2080	4718
2081	2177
2081	3008
2081	3328
2082	2494
2082	3119
2082	3147
2082	3771
2082	3869
2083	2125
2084	2270
2084	4178
2084	4191
2084	4196
2085	2144
2085	2220
2085	3275
2086	2111
2086	3041
2087	2130
2087	2269
2088	3134
2088	3472
2088	4565
2089	2154
2089	2510
2089	2690
2089	2918
2089	3185
2090	4149
2091	2616
2091	2993
2091	3237
2091	3545
2091	4119
2091	4338
2091	4567
2091	4785
2092	3518
2092	4880
2093	2721
2093	3030
2094	2805
2094	2901
2094	3143
2094	4941
2095	2176
2095	2184
2096	2426
2096	2523
2096	3282
2096	3300
2097	3251
2097	4488
2098	2482
2098	3596
2098	4240
2098	4583
2099	2265
2099	3651
2100	2346
2100	4739
2101	3820
2102	2254
2102	2464
2102	4147
2104	3534
2104	4042
2105	2141
2105	2573
2105	3444
2105	4196
2105	4200
2105	4687
2106	2224
2106	3207
2106	3515
2106	3630
2106	4247
2107	3020
2107	4214
2108	2117
2108	3225
2108	4760
2108	4791
2109	3050
2109	3702
2110	3274
2110	3792
2111	2285
2112	3569
2112	3984
2113	2119
2113	4947
2113	4989
2114	2317
2114	2454
2114	3242
2114	3369
2115	3728
2116	2150
2116	2367
2116	2509
2116	3863
2117	2568
2117	2994
2117	3317
2117	4815
2118	2364
2118	2550
2118	2699
2118	2707
2118	2973
2118	3355
2118	3969
2118	4282
2119	2147
2119	4237
2119	4411
2119	4950
2120	3582
2120	3657
2121	3061
2121	4016
2121	4108
2122	2560
2122	2609
2123	2421
2123	3334
2123	3559
2123	4625
2125	2588
2125	3020
2125	3825
2126	2361
2126	3025
2126	3287
2126	3944
2127	2250
2127	2666
2127	3072
2127	3585
2127	4500
2127	4732
2127	4733
2129	2598
2129	3244
2130	3549
2130	4167
2131	3302
2131	3394
2131	4572
2131	4916
2132	2862
2133	2495
2133	3003
2133	3219
2133	4869
2134	2675
2134	2779
2134	3249
2134	4071
2134	4454
2135	2221
2135	2326
2135	2448
2135	2975
2135	3616
2135	3902
2135	4227
2135	4513
2135	4761
2136	4174
2137	2145
2137	3260
2137	3585
2137	3816
2137	4217
2138	2213
2141	2964
2141	3011
2141	3492
2141	3907
2141	4148
2142	3565
2143	2234
2143	2420
2143	3860
2143	4159
2143	4288
2143	4675
2144	2800
2144	3583
2144	3789
2145	2742
2145	2840
2145	3054
2145	3318
2145	4268
2145	4275
2145	4727
2145	4989
2146	2772
2146	3671
2146	4175
2146	4850
2146	4984
2147	2190
2147	2393
2147	3249
2147	4225
2148	2437
2148	3694
2148	3803
2149	2157
2149	2811
2149	4549
2149	4865
2149	4969
2150	3465
2150	4018
2150	4130
2150	4506
2151	2767
2151	3032
2152	3875
2153	3303
2153	4126
2153	4160
2154	2810
2154	2945
2155	3791
2155	4844
2156	2292
2156	2768
2156	4363
2157	2553
2157	2902
2157	3734
2158	2250
2158	2274
2158	2354
2158	2678
2158	3158
2158	3351
2158	3525
2159	2264
2159	2768
2159	3847
2159	4100
2159	4809
2160	3391
2160	4452
2161	2237
2161	2689
2161	3132
2162	2220
2162	2706
2162	4367
2163	4494
2164	2238
2165	2588
2165	2635
2165	2991
2166	2185
2166	2530
2168	2651
2168	3780
2168	3808
2168	4886
2169	2909
2169	3169
2169	4315
2170	3314
2171	2277
2171	2397
2171	2584
2171	3789
2171	4821
2171	4933
2172	3457
2172	3938
2172	4860
2172	4868
2173	2601
2173	3531
2173	4185
2174	3566
2174	4235
2175	2908
2175	3796
2176	2405
2176	3663
2176	4495
2177	3503
2177	4008
2178	2630
2178	2746
2178	3085
2178	4034
2178	4445
2178	4647
2179	2197
2179	4152
2180	2632
2181	2647
2181	3184
2181	3254
2181	4302
2182	4193
2182	4556
2182	4640
2183	3002
2183	4381
2184	2299
2184	2713
2184	2859
2184	3836
2184	4231
2185	2187
2185	3820
2186	3521
2188	2874
2191	2384
2192	2498
2192	2694
2192	3036
2192	3748
2192	4024
2193	2477
2193	2787
2193	2903
2193	4419
2193	4567
2193	4968
2194	2583
2195	2997
2195	4525
2197	2457
2197	3828
2197	4022
2199	3639
2199	4811
2200	2673
2200	3013
2200	4127
2201	4033
2201	4953
2202	2220
2203	4661
2203	4703
2204	2559
2204	3523
2204	4428
2206	3033
2207	3802
2207	3926
2207	4872
2212	4078
2213	2843
2213	3012
2213	3399
2214	2678
2214	3831
2214	4268
2215	2431
2215	3124
2215	3198
2215	3358
2215	3555
2215	4264
2216	2915
2216	3131
2216	3520
2216	4036
2216	4622
2217	3110
2217	3716
2218	3492
2221	2247
2221	3524
2222	2274
2222	3211
2223	2273
2223	3561
2223	4369
2223	4443
2224	3866
2225	4694
2226	2793
2226	3238
2227	2304
2227	2814
2229	2659
2229	4772
2229	4908
2230	2623
2230	4955
2231	3314
2231	3513
2231	4586
2232	2414
2232	2588
2232	3872
2232	4002
2232	4009
2232	4197
2232	4414
2232	4892
2232	4910
2233	3666
2236	2819
2236	4043
2237	2619
2237	2688
2237	3869
2238	2300
2238	3935
2239	2755
2239	3062
2239	3210
2239	3328
2239	3358
2239	3380
2239	3673
2239	4365
2239	4503
2239	4539
2240	2729
2240	3112
2240	3125
2240	3530
2241	2453
2241	2546
2241	2797
2241	3922
2242	2324
2242	2441
2242	3693
2242	3981
2242	4180
2242	4589
2242	4730
2244	4379
2246	2277
2246	3858
2247	2303
2247	2378
2247	2811
2247	3197
2247	4788
2248	2338
2248	2854
2248	3092
2248	3359
2248	3605
2248	4219
2248	4284
2249	2976
2250	3010
2250	3300
2252	3831
2252	4030
2252	4917
2253	2597
2253	3116
2253	3649
2253	3681
2253	4007
2254	3427
2254	4058
2254	4707
2254	4752
2255	3184
2255	3635
2256	2384
2256	2912
2256	3590
2258	2683
2258	3356
2258	4491
2258	4960
2259	2354
2259	2934
2259	3393
2260	3543
2261	3040
2262	2960
2262	3139
2262	3682
2263	4070
2264	3261
2265	4105
2266	3485
2266	3823
2267	2677
2267	3435
2267	4088
2267	4272
2270	4436
2271	2614
2271	4745
2272	2373
2272	3713
2273	2419
2273	4006
2273	4973
2276	4527
2276	4916
2277	3630
2277	4138
2277	4226
2278	3776
2279	2665
2279	3151
2279	4214
2279	4566
2280	3076
2281	3631
2281	4892
2282	3010
2282	3235
2282	4820
2282	4894
2283	2757
2283	3009
2283	4851
2284	2403
2284	3911
2284	4986
2285	4290
2286	3044
2287	2336
2287	2414
2287	2474
2287	3415
2287	4184
2288	2853
2288	2910
2290	2741
2290	3055
2290	3084
2291	3940
2291	4306
2292	3438
2292	4813
2294	2720
2294	3095
2294	3599
2294	4936
2296	2488
2296	4216
2297	2455
2297	2692
2297	3063
2298	4271
2298	4756
2299	3474
2301	2308
2302	2309
2302	2738
2302	3070
2302	3399
2302	3959
2302	3966
2303	2679
2303	2983
2303	4512
2304	2642
2305	2494
2305	3061
2305	3123
2305	3653
2305	4745
2306	3430
2307	3859
2308	2397
2308	2747
2308	3651
2310	3396
2310	4557
2311	2403
2311	4813
2312	3021
2314	2910
2314	3084
2314	4569
2314	4806
2315	2770
2315	3648
2315	4636
2316	2350
2316	2775
2317	2616
2317	3548
2318	4156
2319	3856
2319	3904
2319	4311
2320	3558
2320	3972
2322	4450
2323	2517
2323	3125
2323	3404
2324	3291
2324	3365
2324	3758
2324	4057
2324	4709
2325	2344
2326	2593
2326	2709
2326	3641
2327	2964
2327	3264
2327	3418
2328	3226
2328	4357
2329	3515
2331	2512
2331	4010
2332	3428
2333	2447
2333	3323
2333	3635
2333	4306
2333	4504
2335	2386
2335	3008
2336	4043
2336	4857
2338	2470
2339	3856
2339	4525
2339	4722
2339	4859
2340	2440
2340	2827
2340	3202
2340	3767
2341	2771
2341	3122
2341	3234
2341	4188
2341	4497
2341	4968
2342	3504
2343	3232
2343	3925
2343	3926
2343	3936
2343	3940
2346	2950
2346	4582
2347	2396
2348	2705
2348	3672
2348	4834
2349	4377
2349	4792
2350	2613
2350	3214
2350	3233
2350	3696
2351	3546
2351	4827
2353	2555
2353	3328
2353	4431
2354	4514
2354	4910
2355	2542
2355	2813
2355	3261
2355	3634
2355	4073
2355	4178
2355	4218
2355	4833
2355	4942
2357	3023
2357	4275
2358	2815
2358	4599
2358	4659
2359	2437
2359	2518
2360	4460
2361	2704
2361	2794
2361	4467
2362	4906
2363	2764
2363	3041
2363	4559
2363	4654
2364	2979
2364	4569
2366	3332
2366	4151
2367	4703
2367	4863
2368	2388
2368	2792
2368	3388
2368	4926
2369	3147
2370	3222
2370	4183
2371	2481
2371	2923
2371	3885
2371	4303
2372	2410
2372	2864
2372	3671
2372	3735
2372	4040
2372	4400
2373	3400
2373	3479
2373	3545
2373	3850
2373	3981
2373	4228
2374	2569
2374	4461
2375	3686
2375	4502
2376	3143
2377	2576
2377	3091
2377	4441
2377	4678
2378	3306
2379	3511
2379	4244
2380	3876
2381	3144
2381	3365
2382	2431
2382	2680
2382	3102
2382	3494
2383	3505
2383	3795
2384	2521
2384	2829
2384	3313
2386	3137
2386	3494
2387	3491
2387	4753
2387	4799
2388	4190
2389	2538
2389	3769
2390	2510
2390	3628
2390	4705
2391	3822
2391	4173
2391	4413
2391	4570
2392	2438
2392	4239
2393	3038
2393	3412
2394	2791
2394	2989
2394	4696
2395	3045
2396	2729
2397	3339
2397	4124
2399	2585
2399	3360
2399	3389
2399	4783
2400	3347
2401	3442
2401	3552
2402	2460
2402	3145
2402	3485
2402	4698
2403	2606
2403	2879
2403	4127
2403	4637
2404	3985
2404	4059
2404	4590
2405	2715
2405	2939
2405	3114
2405	3141
2405	3177
2405	3427
2405	4204
2406	4526
2407	2930
2407	3263
2407	3737
2407	3946
2407	4881
2408	2895
2408	3524
2408	3807
2409	2614
2409	2616
2409	2745
2410	2518
2411	3180
2412	2629
2412	4442
2414	2791
2416	3777
2416	4747
2416	4830
2416	4846
2418	3670
2418	4787
2419	4438
2420	2996
2420	3579
2421	3902
2422	3749
2422	4945
2423	3051
2423	4002
2424	4165
2425	2857
2425	3136
2425	4339
2426	2618
2426	3563
2426	3692
2426	3984
2426	4417
2427	2678
2427	2749
2427	3259
2427	4273
2427	4418
2428	2965
2429	3513
2429	3564
2431	2936
2431	2959
2432	3546
2433	2502
2433	2506
2433	3256
2433	4052
2434	4704
2435	3471
2435	3932
2435	4289
2436	2724
2436	2826
2436	3119
2437	4711
2438	2939
2438	3148
2438	4646
2439	3198
2439	3763
2439	3971
2439	4105
2440	3337
2441	3458
2441	4542
2442	4290
2443	2884
2443	3631
2443	3788
2443	4960
2444	2691
2444	3821
2446	2540
2447	3240
2448	2483
2448	4669
2449	3831
2450	3340
2451	2979
2451	3563
2451	3640
2451	3675
2452	3295
2452	3309
2452	3660
2452	4748
2453	3688
2453	3762
2453	4001
2454	3015
2454	4346
2454	4599
2456	2837
2456	2968
2456	3798
2459	3948
2459	4154
2460	2897
2461	3434
2462	3299
2462	3584
2462	3705
2462	4158
2462	4410
2463	3523
2463	4085
2464	3025
2464	3985
2466	3181
2467	3387
2468	3085
2468	3762
2468	4790
2469	4124
2470	3226
2472	2582
2472	3707
2472	4393
2473	2873
2473	3665
2473	4347
2474	2570
2474	3803
2474	3839
2474	4471
2474	4927
2475	3342
2475	4610
2475	4772
2475	4952
2476	3461
2476	4209
2476	4448
2476	4490
2477	3276
2477	3557
2477	4023
2478	2627
2478	2875
2478	2906
2480	3275
2481	2669
2481	2717
2481	3051
2481	3689
2481	3779
2481	3980
2481	4504
2482	2560
2482	3947
2482	3993
2482	4496
2482	4523
2482	4744
2484	3187
2486	2746
2486	2868
2486	4330
2487	2859
2487	3763
2488	3221
2488	4406
2491	3733
2491	3978
2491	4242
2491	4612
2492	3872
2492	4289
2494	3925
2494	4472
2494	4667
2495	3331
2495	3475
2496	2593
2496	3467
2497	3153
2497	3913
2498	2535
2498	3326
2498	3483
2498	4271
2499	3038
2499	3230
2499	3522
2499	4650
2499	4731
2500	2592
2500	3266
2501	3510
2501	3735
2501	4151
2502	4396
2502	4759
2503	2706
2503	2829
2503	3392
2503	3426
2503	4417
2503	4711
2504	3190
2504	3551
2504	3614
2504	3739
2504	4876
2505	3080
2506	4642
2508	3580
2508	4327
2508	4476
2509	4326
2509	4809
2510	2744
2511	3175
2511	4929
2512	4566
2513	2748
2513	2757
2514	2808
2514	2860
2514	3964
2514	4180
2515	2586
2516	3719
2517	2668
2517	2924
2517	3131
2517	3180
2519	2958
2519	3652
2519	4364
2519	4486
2519	4666
2520	3781
2520	4790
2521	4622
2522	3569
2522	4318
2524	2794
2524	3726
2524	4095
2524	4145
2524	4455
2526	3433
2526	4715
2528	4520
2529	3183
2529	3404
2529	4213
2529	4910
2530	3013
2530	4781
2530	4997
2531	3550
2532	2797
2532	3118
2533	2715
2533	4201
2533	4436
2534	2995
2534	4467
2535	3057
2536	2585
2536	2847
2536	3220
2536	4041
2536	4166
2536	4677
2536	4905
2537	2864
2537	3257
2538	3099
2538	4453
2539	2754
2539	3484
2539	4670
2540	3004
2540	3534
2541	3411
2541	4672
2542	2632
2542	2728
2542	4818
2543	4276
2543	4667
2544	3482
2544	3596
2545	2709
2545	3795
2545	4719
2545	4969
2546	3093
2546	3683
2546	4246
2546	4924
2548	3660
2549	3214
2549	4967
2550	3487
2550	3491
2550	3602
2550	3892
2550	3964
2550	4506
2551	3611
2552	3180
2554	3845
2554	4161
2554	4577
2554	4758
2555	3904
2556	4019
2556	4803
2557	4539
2558	3333
2560	2596
2560	3316
2561	2772
2561	4151
2561	4425
2563	2826
2563	4700
2564	3912
2564	4040
2564	4181
2565	2753
2565	3268
2565	3611
2565	3678
2565	3688
2565	4092
2565	4746
2566	2754
2566	3810
2567	3157
2568	2664
2568	2734
2568	2800
2568	4165
2568	4613
2569	3474
2569	4158
2570	3212
2570	4680
2571	2998
2571	3705
2571	3990
2571	4131
2574	4354
2575	3555
2576	2942
2577	4622
2578	3123
2579	2615
2580	4705
2581	2841
2581	4155
2581	4255
2582	2670
2582	2705
2582	2808
2582	3873
2582	4127
2582	4822
2583	4568
2583	4834
2583	4859
2584	3514
2584	4311
2584	4708
2585	3752
2586	2778
2586	4288
2587	2821
2587	4155
2588	3086
2589	3047
2589	3781
2590	4173
2590	4392
2590	4903
2591	3899
2591	4012
2592	4403
2593	2725
2593	3268
2593	3757
2593	3950
2593	4032
2593	4116
2593	4323
2594	3159
2594	4373
2596	3462
2596	4037
2597	4109
2597	4817
2598	3222
2598	3596
2598	4563
2600	4429
2601	2644
2601	3288
2601	3420
2601	3775
2601	4007
2601	4874
2602	3637
2602	3764
2602	4886
2603	4865
2604	2885
2605	3149
2605	3151
2605	4776
2606	3841
2606	4029
2607	3064
2607	3600
2607	4239
2608	4096
2609	3825
2611	3224
2611	4603
2612	2844
2612	4130
2612	4665
2614	3465
2615	2904
2615	3206
2615	4111
2617	3390
2617	4079
2617	4295
2617	4585
2618	4500
2619	3257
2619	4343
2620	2833
2620	3023
2620	3490
2620	4710
2621	4532
2621	4782
2621	4970
2622	3552
2623	3410
2624	3994
2625	2648
2625	2695
2626	3995
2630	2928
2631	2732
2633	3815
2634	4424
2634	4781
2634	4886
2635	2977
2635	3375
2635	3429
2635	4184
2636	2971
2637	4970
2638	3207
2638	3499
2639	4386
2640	2660
2640	3982
2640	4185
2641	2911
2642	3861
2643	4123
2644	2682
2644	2747
2644	3725
2644	4122
2644	4523
2645	4314
2646	3113
2646	4349
2647	3549
2647	4002
2647	4093
2647	4351
2647	4558
2648	3775
2649	3120
2649	3426
2649	4798
2650	2673
2650	2748
2650	2792
2650	3025
2650	3670
2650	3917
2650	4662
2651	2762
2651	3349
2651	3757
2652	2825
2652	3428
2652	3731
2652	4212
2654	2725
2654	3443
2655	4417
2656	3075
2656	3312
2656	3403
2656	4888
2658	4128
2658	4159
2659	3732
2659	4123
2660	3758
2660	4505
2660	4616
2660	4708
2662	3895
2662	4287
2663	2754
2663	3356
2663	3605
2663	4176
2663	4699
2664	3216
2664	3956
2664	4674
2665	3885
2665	4799
2666	3644
2666	4579
2667	2764
2669	4369
2669	4870
2670	2696
2670	2737
2670	3987
2670	4732
2671	2724
2671	2894
2671	3063
2671	4075
2673	3524
2673	4019
2673	4036
2673	4735
2674	3836
2674	4378
2674	4868
2675	4601
2675	4998
2676	3342
2676	3759
2676	3996
2676	4637
2677	3632
2677	4065
2678	3642
2678	3951
2680	4888
2681	4119
2682	4301
2682	4951
2686	3460
2689	3508
2690	4984
2692	4257
2693	3141
2694	4411
2695	3658
2695	4185
2696	3929
2696	4336
2697	4327
2699	2878
2699	3217
2699	3777
2699	4004
2699	4446
2700	2819
2700	3165
2702	3022
2702	3105
2702	4093
2703	3938
2704	4224
2705	3496
2705	4552
2706	3540
2707	3623
2707	3761
2707	3821
2707	4860
2708	3037
2708	3570
2708	3638
2708	3703
2708	4294
2712	4551
2713	3901
2713	4387
2714	3162
2714	3685
2715	3461
2716	2731
2716	3302
2716	4639
2717	2842
2717	3519
2717	4115
2717	4726
2717	4835
2717	4904
2717	4913
2718	2737
2718	2788
2718	4940
2719	3799
2721	2819
2721	3409
2721	4326
2722	2980
2723	3337
2724	4022
2724	4980
2725	2940
2725	3329
2725	3507
2727	4717
2727	4829
2728	3849
2728	4253
2729	2942
2729	3767
2729	3827
2730	3461
2730	4917
2731	4186
2732	2878
2733	3560
2733	3591
2733	4385
2736	3008
2736	4682
2737	3564
2738	2960
2738	3112
2738	3292
2738	4095
2738	4962
2739	3691
2740	3140
2740	4081
2741	3783
2742	3490
2742	3516
2743	3830
2743	4229
2743	4661
2743	4992
2744	3043
2746	3783
2746	4943
2748	3033
2748	3049
2749	2891
2749	4348
2750	3208
2750	3637
2752	3338
2752	3796
2753	2875
2753	2896
2753	4117
2754	3551
2755	3921
2756	3344
2756	3774
2756	4116
2757	2911
2757	3331
2757	4575
2758	3882
2758	3894
2759	2903
2759	3949
2759	4806
2760	3710
2760	4060
2760	4062
2761	4561
2764	3007
2764	3490
2764	4490
2765	3369
2765	4403
2766	3578
2769	3388
2769	4103
2769	4267
2769	4297
2769	4429
2770	2867
2770	3352
2771	2805
2771	4393
2771	4918
2772	3826
2773	2814
2773	4037
2773	4278
2773	4401
2776	3029
2777	4202
2778	3715
2778	3746
2778	4692
2778	4755
2780	3220
2780	4357
2782	3701
2782	4274
2783	3367
2784	3736
2784	4827
2785	3322
2786	4046
2789	3954
2789	4374
2793	2914
2793	4314
2793	4421
2794	4199
2796	4076
2796	4118
2797	3169
2797	3910
2798	3031
2798	3242
2798	3446
2798	4923
2799	3850
2800	4821
2800	4825
2800	4832
2801	3663
2802	3784
2802	3890
2802	4891
2804	3166
2805	3308
2806	3295
2806	4460
2807	3012
2810	4186
2810	4193
2810	4787
2811	4789
2812	4595
2813	2897
2814	2815
2814	3260
2814	4511
2815	3091
2815	4384
2818	2965
2818	4365
2819	3186
2819	3847
2819	4045
2819	4307
2819	4393
2819	4825
2820	2942
2821	3717
2821	4044
2822	3669
2822	4132
2822	4732
2823	3544
2823	3801
2823	3975
2823	4436
2824	4862
2826	3272
2828	3998
2828	4706
2829	2937
2830	4110
2831	3411
2831	4411
2832	4263
2832	4634
2832	4680
2832	4952
2833	4514
2834	3390
2834	3498
2834	3946
2837	2883
2838	2955
2838	3315
2838	3860
2838	4563
2840	3244
2841	3557
2841	4496
2841	4855
2842	3533
2842	4394
2843	4135
2844	3906
2845	2852
2845	4507
2846	3279
2847	3386
2847	3452
2847	4638
2848	3129
2849	2988
2850	3584
2850	4082
2850	4105
2850	4116
2851	3552
2851	3727
2853	3070
2853	3978
2854	2969
2854	3491
2856	3124
2856	3240
2856	3447
2856	3557
2856	3741
2856	4529
2857	4818
2858	3028
2858	4562
2858	4962
2859	3798
2859	4469
2860	4524
2861	3743
2861	4372
2861	4496
2861	4949
2862	2893
2862	3208
2862	3436
2863	3416
2863	4045
2864	3100
2865	4639
2866	3188
2866	3728
2867	4311
2869	2972
2870	3000
2871	3025
2871	3906
2873	3399
2873	4581
2874	3416
2875	4587
2877	2937
2877	4243
2880	2891
2880	4233
2881	2902
2881	3409
2881	3971
2881	4135
2883	4604
2885	4219
2887	3357
2887	3780
2889	4234
2889	4586
2889	4823
2890	3408
2890	4346
2890	4395
2891	2906
2892	4091
2893	3267
2894	3511
2894	4680
2894	4889
2895	2911
2895	4203
2896	3931
2897	4140
2897	4825
2899	2986
2899	3213
2901	3471
2901	4067
2902	3729
2903	3966
2905	4766
2906	2970
2906	3103
2907	4221
2907	4588
2907	4644
2908	4281
2908	4413
2909	3273
2909	3284
2910	3375
2910	3903
2915	3580
2915	3726
2916	4568
2917	3659
2917	4341
2917	4925
2918	3130
2919	2975
2920	3509
2920	4632
2921	3614
2921	3954
2921	4589
2922	4577
2924	3605
2924	4568
2924	4848
2926	3305
2927	3393
2927	3697
2927	3777
2928	3675
2928	3724
2928	4432
2931	3505
2931	3844
2934	3564
2934	3901
2934	4499
2934	4668
2935	3204
2936	3512
2936	4178
2937	4106
2939	4563
2939	4819
2940	3001
2940	3441
2940	3626
2943	4883
2944	3246
2944	4340
2944	4342
2944	4616
2946	3034
2947	3099
2947	3954
2947	4092
2947	4146
2947	4203
2949	3912
2949	4295
2950	3571
2950	3945
2951	3484
2951	3825
2951	3952
2951	4120
2952	3688
2952	4187
2953	3764
2955	3182
2956	3080
2956	3657
2958	3050
2959	4791
2959	4840
2961	3658
2961	4625
2962	3313
2962	3853
2962	4033
2962	4345
2963	3072
2963	4288
2964	3604
2965	3140
2965	4111
2966	4422
2967	3356
2967	3420
2967	4252
2968	3734
2969	3940
2969	4941
2970	3362
2970	3814
2970	4169
2972	3034
2972	4719
2973	4301
2973	4731
2974	3251
2974	4088
2975	3581
2977	3191
2977	4122
2977	4218
2977	4683
2978	4273
2979	4799
2980	3315
2981	3485
2981	4899
2982	3378
2982	4478
2982	4688
2982	4925
2983	4514
2984	3440
2984	3656
2986	3485
2986	3754
2986	3834
2986	4283
2993	4213
2994	3148
2994	4058
2995	3250
2995	3359
2995	3643
2996	3223
2996	4465
2996	4624
2997	3392
2997	4152
2997	4180
2997	4297
2999	3330
2999	3618
3001	3106
3001	3454
3002	3361
3002	4995
3003	4629
3004	3318
3004	3475
3005	3018
3005	3611
3005	3863
3005	4139
3005	4720
3005	4915
3007	3394
3009	3097
3009	4610
3009	4898
3013	3706
3013	4506
3013	4757
3013	4945
3015	3140
3015	4423
3015	4614
3019	3988
3021	3776
3021	4257
3022	4675
3023	3176
3023	4726
3024	3306
3024	3389
3024	3531
3024	3756
3024	4335
3024	4407
3024	4439
3024	4819
3025	3066
3025	3967
3025	4695
3027	4437
3028	4144
3030	4019
3030	4389
3032	3474
3032	3999
3032	4882
3033	3351
3034	3188
3034	3812
3037	4798
3039	3244
3040	4112
3040	4211
3040	4325
3040	4463
3041	3494
3041	4354
3041	4631
3042	3491
3042	3825
3042	3837
3042	4055
3043	3218
3043	4588
3043	4751
3044	4543
3047	4101
3047	4214
3047	4817
3048	3345
3048	4825
3049	4934
3051	3956
3053	3766
3056	4008
3057	4878
3058	4829
3059	3140
3061	4014
3062	3634
3062	4257
3064	4700
3066	4100
3066	4443
3067	3979
3067	4317
3067	4873
3068	3631
3069	3098
3073	4559
3075	3202
3075	3500
3077	3978
3079	4907
3079	4987
3080	3695
3081	3346
3083	3336
3083	3568
3083	3986
3084	3694
3085	3522
3085	4253
3086	3495
3086	3746
3086	4823
3087	4112
3088	3282
3099	4553
3099	4704
3100	3233
3102	3814
3103	3510
3104	4065
3105	3799
3106	4349
3107	3246
3107	3868
3108	3652
3109	3289
3109	3572
3109	3947
3112	4457
3114	3837
3114	4401
3115	3673
3117	4313
3118	3505
3118	4379
3118	4462
3118	4805
3122	3278
3122	3414
3122	4069
3123	4177
3124	3255
3124	3535
3124	3936
3125	3566
3126	3711
3126	4638
3127	3619
3128	3418
3129	3912
3129	3975
3129	4649
3130	3884
3131	3583
3131	3771
3131	4354
3134	4525
3135	3684
3136	3676
3137	4183
3139	4122
3140	3650
3140	4765
3142	3213
3142	3468
3142	4644
3142	4775
3143	4850
3146	3689
3147	4291
3147	4373
3148	3298
3148	3621
3148	4967
3149	3848
3151	3184
3151	3612
3151	3639
3153	3443
3153	3546
3153	3804
3153	4968
3155	3355
3155	3971
3156	3372
3158	3209
3158	3855
3158	4170
3158	4241
3158	4429
3158	4469
3162	4278
3164	3664
3167	4489
3172	3791
3174	4997
3175	3355
3175	4215
3175	4738
3177	3448
3178	4171
3178	4386
3178	4703
3181	3574
3181	4918
3183	4329
3184	3257
3186	4406
3186	4536
3186	4912
3187	4316
3190	4528
3190	4975
3191	3664
3191	3721
3191	4600
3191	4813
3192	3206
3193	3557
3193	4866
3194	3501
3195	3828
3195	4602
3195	4673
3196	3298
3198	3359
3198	3380
3198	3558
3198	3795
3198	4878
3199	3654
3199	3778
3199	4359
3200	4895
3201	3695
3201	4167
3204	3462
3204	4520
3206	3464
3206	3627
3206	4048
3206	4057
3206	4086
3208	3525
3208	4637
3209	4296
3210	3640
3211	4448
3213	3518
3213	4166
3215	3757
3215	3905
3218	3810
3219	3484
3219	3560
3219	3965
3219	4801
3221	3419
3222	3735
3223	3976
3224	4117
3225	3599
3225	3640
3226	4114
3227	3512
3227	4777
3229	4094
3229	4303
3230	3597
3230	4924
3231	4037
3233	3805
3233	3890
3234	3348
3234	4121
3234	4324
3235	4689
3235	4763
3236	3927
3236	4230
3241	3543
3241	4148
3243	3560
3244	3862
3244	3868
3244	4358
3244	4743
3245	3382
3245	3407
3245	3632
3245	4204
3245	4430
3248	3385
3248	3425
3248	4551
3250	3455
3250	4091
3252	4382
3253	4104
3253	4722
3256	3669
3256	4308
3256	4423
3258	4123
3259	3844
3259	4018
3259	4792
3261	3704
3261	4221
3261	4323
3261	4530
3263	4147
3263	4728
3264	3623
3265	3339
3266	3895
3266	4236
3267	4758
3267	4967
3268	4659
3268	4941
3270	3874
3271	3992
3275	4932
3277	4701
3278	4699
3278	4962
3279	3429
3279	3547
3279	4113
3279	4352
3280	3396
3280	4254
3281	3651
3281	4477
3281	4738
3284	3854
3284	4061
3285	3596
3285	3778
3285	4374
3285	4695
3287	3751
3288	3832
3288	4674
3290	3637
3293	4322
3293	4371
3301	4454
3303	4426
3303	4564
3303	4661
3305	3472
3305	4342
3308	3576
3310	4873
3312	3363
3312	3861
3312	4353
3313	4018
3315	4005
3315	4458
3317	4726
3318	4759
3318	4998
3319	4146
3319	4529
3319	4908
3320	3779
3320	4242
3321	3401
3323	4415
3323	4522
3325	3327
3325	3772
3325	4396
3326	4346
3328	3978
3328	4911
3329	3437
3330	3414
3330	4935
3331	3537
3333	3421
3333	3690
3333	4483
3334	4709
3335	4343
3336	3452
3336	3961
3336	4300
3336	4768
3337	4646
3337	4932
3338	4782
3339	3792
3339	3815
3339	3957
3340	4080
3341	3600
3341	3931
3348	3597
3348	3679
3348	4189
3349	4489
3350	4518
3353	3568
3353	3655
3353	4724
3354	3609
3354	3709
3356	3694
3356	4757
3358	3586
3361	4137
3361	4525
3363	4466
3363	4810
3365	3829
3366	4005
3366	4339
3367	4345
3368	3751
3368	4104
3368	4689
3369	3517
3369	3685
3369	4113
3369	4315
3371	4982
3372	4082
3372	4648
3373	4438
3374	4293
3374	4458
3375	4243
3375	4954
3376	4468
3376	4471
3376	4528
3377	4404
3377	4554
3382	4331
3383	4335
3383	4337
3383	4466
3385	3981
3389	3917
3391	4643
3393	4427
3393	4478
3397	3700
3401	4123
3402	3439
3403	3410
3403	4210
3403	4242
3403	4851
3404	3560
3404	4007
3405	4166
3405	4238
3408	4038
3410	3758
3410	4035
3410	4945
3411	3444
3411	4200
3412	4068
3413	3703
3413	4536
3413	4704
3414	3951
3414	4040
3414	4884
3415	3517
3417	4969
3422	4171
3423	3444
3423	4267
3424	4088
3424	4198
3425	4345
3425	4515
3426	3859
3427	4636
3428	4847
3433	4800
3435	3576
3435	3759
3438	3453
3438	3728
3438	4097
3440	3908
3441	4149
3441	4636
3441	4968
3442	3679
3442	4177
3443	3591
3444	4654
3445	3758
3446	3669
3451	4028
3452	3811
3453	4011
3453	4013
3456	3789
3457	4981
3458	4236
3458	4721
3463	3892
3468	3477
3468	4077
3471	4699
3471	4831
3472	4261
3472	4509
3473	3991
3473	4420
3474	4990
3475	3910
3476	4163
3477	3492
3477	3919
3477	4030
3478	3982
3480	4005
3480	4408
3481	3680
3481	4367
3482	4303
3483	4722
3483	4964
3484	3739
3484	3873
3488	4776
3489	4461
3490	4977
3492	4145
3492	4285
3493	3508
3494	3927
3494	4212
3500	4427
3501	3958
3501	4097
3504	4994
3505	4112
3505	4721
3506	4504
3508	3854
3508	4371
3509	3859
3509	4805
3509	4980
3511	4344
3511	4461
3512	3714
3512	3842
3512	4059
3514	4639
3515	3661
3515	4065
3518	4264
3519	3574
3521	4465
3523	3936
3524	3870
3525	4614
3525	4965
3526	3706
3527	3963
3527	4341
3527	4414
3529	4402
3529	4520
3532	4956
3532	4961
3533	4555
3536	4187
3536	4449
3536	4466
3537	3652
3537	3960
3537	3971
3537	4127
3538	3634
3538	4029
3538	4987
3539	4118
3541	4275
3543	4507
3544	4348
3544	4960
3545	4874
3546	4472
3547	4335
3548	3630
3550	3937
3550	4389
3550	4620
3550	4846
3551	4671
3552	3880
3552	4189
3553	3757
3553	4079
3554	4500
3554	4906
3555	4153
3555	4521
3556	3645
3556	3885
3556	4145
3556	4507
3556	4564
3558	3632
3558	4135
3558	4539
3561	4943
3562	4451
3563	4625
3565	4206
3566	3670
3566	4002
3566	4119
3567	3961
3569	4141
3569	4747
3569	4988
3572	4014
3572	4297
3574	4100
3574	4805
3577	4106
3578	3857
3578	4454
3579	4598
3581	3974
3581	4053
3581	4338
3582	3675
3582	3958
3582	4393
3583	3880
3586	3843
3587	4369
3587	4388
3590	3835
3590	4565
3590	4792
3592	3992
3593	3891
3594	4485
3595	3745
3595	3789
3597	4503
3599	3714
3600	3851
3602	3880
3602	4723
3604	4072
3606	4395
3606	4983
3607	4022
3607	4477
3610	3879
3611	3757
3611	4490
3613	3707
3613	3709
3613	4074
3613	4226
3617	4757
3617	4954
3618	4522
3619	3869
3620	3915
3621	4358
3622	4319
3623	4874
3624	3845
3624	3881
3625	4463
3625	4727
3626	3657
3626	3671
3626	3718
3626	4478
3627	3741
3627	4917
3628	3702
3630	4359
3632	3868
3632	4137
3632	4527
3632	4593
3633	3719
3634	3921
3634	4295
3640	4687
3641	4293
3642	4449
3643	4402
3644	4862
3645	4199
3647	4996
3648	3919
3648	4643
3649	4895
3650	3941
3650	4380
3650	4964
3651	4625
3653	4410
3653	4474
3655	4479
3656	4675
3657	3675
3658	4131
3658	4279
3658	4440
3660	4184
3662	4484
3663	3988
3663	4238
3663	4762
3665	3789
3667	4778
3668	4515
3672	3676
3672	4353
3674	4165
3674	4535
3674	4849
3679	3846
3682	3886
3682	4070
3683	4843
3684	4182
3684	4557
3685	4067
3686	4076
3686	4549
3690	3928
3691	4624
3694	3982
3694	4814
3694	4858
3696	3733
3700	4064
3700	4281
3700	4921
3704	4571
3704	4993
3708	3929
3708	4305
3710	4095
3710	4826
3711	4625
3712	4508
3713	4582
3714	4770
3715	4788
3716	3779
3716	4800
3717	4799
3718	4854
3721	3918
3722	3953
3723	4505
3723	4576
3724	4681
3726	4130
3726	4467
3727	4475
3728	3784
3729	4978
3731	4785
3733	4641
3734	4876
3735	3783
3736	4128
3736	4602
3736	4838
3737	4789
3740	4967
3742	4677
3743	4249
3744	4130
3746	3865
3746	4114
3746	4783
3747	4346
3748	4216
3749	3996
3750	4339
3750	4797
3751	3941
3752	3837
3752	4263
3753	3807
3753	3844
3753	4045
3757	4159
3758	4056
3759	4075
3760	4552
3761	4388
3762	4913
3764	4741
3764	4862
3765	4247
3765	4370
3765	4498
3766	4549
3767	4320
3770	3900
3770	4146
3772	4841
3773	4028
3775	4981
3777	3939
3777	4005
3777	4058
3782	3878
3782	4268
3782	4331
3783	3896
3784	4804
3786	3788
3786	4655
3787	4250
3787	4775
3788	3880
3791	4431
3792	4530
3796	4354
3806	4933
3811	4054
3812	4361
3812	4608
3817	4394
3819	4615
3820	3878
3820	4233
3822	4222
3822	4876
3824	3939
3824	3975
3824	4332
3824	4963
3828	4272
3835	4665
3836	4340
3839	4312
3842	3952
3842	4318
3842	4853
3846	3924
3847	3862
3847	4195
3847	4468
3848	3911
3848	4376
3850	4702
3852	4011
3855	4080
3855	4505
3856	4920
3859	4585
3859	4608
3860	3884
3860	4190
3860	4397
3860	4494
3861	4316
3861	4714
3862	3934
3862	4121
3863	4429
3865	4162
3865	4839
3870	4589
3873	4325
3874	4073
3875	4131
3876	3893
3876	4282
3877	4791
3878	4928
3880	4270
3880	4511
3880	4948
3882	3952
3882	4181
3887	4791
3889	4299
3891	4551
3891	4819
3894	4829
3895	4547
3898	4131
3898	4407
3898	4690
3899	3953
3903	4663
3903	4860
3905	4553
3907	4431
3908	4351
3909	4631
3909	4971
3910	4402
3910	4710
3911	4307
3912	4093
3916	4484
3918	4023
3923	4323
3925	4135
3925	4920
3925	4999
3929	4091
3929	4468
3930	4170
3931	3979
3931	4014
3933	4405
3936	4353
3937	4574
3939	4082
3941	4905
3943	4576
3948	4096
3949	4374
3949	4802
3950	3987
3952	4069
3956	4326
3957	4525
3959	4839
3960	4233
3962	4644
3964	4741
3966	4683
3967	4057
3967	4681
3972	4845
3973	4137
3979	4087
3979	4117
3982	4309
3982	4506
3983	4758
3985	4041
3985	4769
3989	4635
3993	4416
3993	4645
3995	4133
3998	4980
3998	4996
4000	4137
4000	4891
4001	4167
4001	4363
4002	4071
4005	4145
4007	4558
4008	4856
4009	4665
4010	4232
4011	4156
4011	4198
4011	4288
4013	4834
4014	4018
4014	4364
4015	4838
4024	4410
4026	4191
4026	4398
4026	4770
4027	4935
4029	4500
4030	4279
4035	4650
4036	4339
4036	4502
4037	4598
4037	4749
4041	4751
4041	4972
4041	4992
4042	4287
4043	4383
4043	4623
4045	4598
4047	4201
4051	4260
4052	4586
4054	4773
4058	4395
4067	4201
4068	4671
4074	4579
4078	4805
4081	4467
4081	4592
4084	4392
4087	4262
4090	4132
4091	4885
4093	4937
4094	4208
4102	4651
4107	4139
4107	4337
4108	4786
4113	4208
4117	4742
4118	4215
4118	4615
4120	4861
4126	4573
4126	4907
4130	4138
4133	4809
4135	4369
4135	4764
4135	4851
4136	4388
4136	4954
4137	4566
4140	4319
4140	4514
4142	4484
4142	4771
4145	4989
4147	4532
4147	4762
4150	4419
4152	4611
4156	4418
4158	4578
4164	4768
4166	4999
4168	4453
4168	4727
4174	4689
4180	4620
4181	4203
4184	4970
4191	4324
4193	4195
4195	4691
4198	4750
4199	4377
4199	4814
4201	4225
4204	4509
4206	4488
4210	4893
4212	4285
4213	4903
4214	4358
4214	4958
4215	4846
4217	4728
4219	4618
4224	4590
4230	4761
4231	4522
4234	4246
4236	4734
4237	4550
4238	4928
4240	4954
4242	4877
4246	4682
4246	4799
4251	4324
4256	4805
4258	4736
4266	4384
4270	4464
4273	4407
4275	4982
4277	4537
4285	4779
4288	4548
4289	4877
4290	4597
4291	4945
4294	4687
4295	4956
4296	4653
4297	4451
4304	4407
4304	4773
4309	4783
4313	4835
4315	4720
4316	4725
4316	4939
4320	4972
4325	4337
4325	4749
4329	4398
4337	4781
4342	4900
4344	4607
4346	4651
4347	4877
4351	4872
4351	4953
4356	4557
4359	4447
4365	4818
4380	4716
4385	4496
4385	4698
4392	4464
4400	4868
4402	4628
4405	4484
4409	4810
4416	4997
4418	4688
4422	4589
4424	4831
4429	4701
4439	4729
4445	4907
4446	4762
4450	4624
4455	4927
4462	4606
4464	4547
4465	4720
4473	4937
4475	4663
4478	4668
4481	4935
4485	4776
4489	4935
4491	4558
4493	4807
4493	4977
4494	4928
4500	4599
4505	4578
4508	4690
4523	4697
4525	4700
4528	4641
4528	4764
4531	4642
4532	4767
4534	4753
4536	4729
4541	4889
4547	4873
4549	4754
4554	4629
4555	4606
4557	4828
4562	4605
4562	4659
4562	4687
4562	4804
4564	4864
4565	4658
4565	4827
4577	4708
4589	4843
4592	4978
4599	4655
4599	4948
4605	4938
4608	4616
4618	4642
4629	4840
4630	4863
4634	4698
4643	4875
4651	4837
4652	4745
4656	4991
4671	4702
4671	4768
4685	4872
4689	4973
4706	4714
4708	4899
4717	4748
4724	4950
4742	4845
4746	4845
4746	4856
4748	4955
4756	4810
4786	4902
4815	4889
4836	4857
4854	4929
4861	4939
4863	4898
4872	4917
4889	4971
4909	4924
4914	4960
4920	4966
