0	1
0	2
0	3
0	5
0	7
0	9
0	10
0	11
0	13
0	14
0	17
0	18
0	19
0	20
0	22
0	23
0	25
0	28
0	32
0	36
0	38
0	44
0	45
0	47
0	50
0	57
0	60
0	61
0	68
0	71
0	77
0	78
0	86
0	88
0	91
0	98
0	103
0	107
0	110
0	116
0	118
0	122
0	130
0	139
0	140
0	201
0	234
0	240
0	241
0	255
0	267
0	268
0	271
0	284
0	289
0	304
0	318
0	325
0	352
0	367
0	382
0	384
0	391
0	398
0	434
0	470
0	510
0	514
0	530
0	541
0	561
0	618
0	621
0	628
0	682
0	684
0	791
0	854
0	897
0	912
0	942
0	946
0	947
0	990
0	1012
0	1016
0	1023
0	1063
0	1101
0	1113
0	1149
0	1169
0	1179
0	1184
0	1216
0	1231
0	1263
0	1290
0	1293
0	1321
0	1352
0	1424
0	1440
0	1476
0	1551
0	1622
0	1626
0	1650
0	1736
0	1811
0	1814
0	1842
0	1877
0	2039
0	2064
0	2112
0	2156
0	2157
0	2163
0	2170
0	2240
0	2251
0	2298
0	2316
0	2339
0	2396
0	2400
0	2486
0	2505
0	2512
0	2516
0	2521
0	2536
0	2680
0	2757
0	2799
0	2811
0	2870
0	2893
0	2898
0	2929
0	2932
0	2935
0	2936
0	2939
0	2947
0	2972
0	2991
0	3043
0	3061
0	3066
0	3099
0	3142
0	3218
0	3231
0	3233
0	3249
0	3330
0	3356
0	3418
0	3475
0	3493
0	3510
0	3766
0	3770
0	3808
0	3894
0	3901
0	3933
0	3944
0	3953
0	3998
0	4000
0	4081
0	4121
0	4144
0	4204
0	4220
0	4233
0	4273
0	4291
0	4292
0	4327
0	4352
0	4363
0	4405
0	4461
0	4496
0	4511
0	4585
0	4808
0	4829
0	4849
0	4879
0	4905
0	4939
0	4965
1	3
1	4
1	6
1	7
1	8
1	15
1	17
1	21
1	27
1	28
1	43
1	45
1	49
1	65
1	67
1	75
1	78
1	97
1	99
1	106
1	112
1	125
1	133
1	137
1	140
1	141
1	143
1	156
1	175
1	177
1	189
1	195
1	196
1	199
1	204
1	210
1	212
1	232
1	251
1	253
1	265
1	267
1	275
1	298
1	304
1	306
1	353
1	358
1	380
1	401
1	425
1	445
1	453
1	475
1	477
1	484
1	491
1	510
1	530
1	560
1	609
1	664
1	681
1	688
1	730
1	796
1	809
1	825
1	831
1	895
1	908
1	936
1	948
1	977
1	978
1	1076
1	1136
1	1142
1	1238
1	1245
1	1304
1	1308
1	1348
1	1354
1	1415
1	1417
1	1422
1	1450
1	1471
1	1509
1	1571
1	1600
1	1617
1	1646
1	1653
1	1670
1	1759
1	1775
1	1804
1	1843
1	1889
1	1905
1	1917
1	1928
1	1946
1	1950
1	1952
1	1954
1	2006
1	2011
1	2063
1	2112
1	2145
1	2157
1	2181
1	2245
1	2283
1	2289
1	2328
1	2354
1	2400
1	2409
1	2463
1	2491
1	2500
1	2599
1	2613
1	2615
1	2635
1	2667
1	2668
1	2673
1	2783
1	2798
1	2812
1	3026
1	3063
1	3064
1	3091
1	3094
1	3125
1	3171
1	3293
1	3306
1	3370
1	3466
1	3746
1	3783
1	3792
1	3827
1	3828
1	3837
1	4013
1	4060
1	4089
1	4161
1	4252
1	4283
1	4458
1	4643
1	4734
1	4737
1	4750
1	4858
1	4865
1	4972
1	4997
2	4
2	16
2	41
2	57
2	79
2	102
2	166
2	175
2	192
2	198
2	238
2	357
2	540
2	951
2	970
2	1511
2	1692
2	1903
2	2211
2	2316
2	2375
2	2561
2	2622
2	2628
2	3121
2	3594
2	3652
2	3949
2	4213
3	8
3	217
3	314
3	372
3	373
3	441
3	467
3	492
3	532
3	698
3	753
3	998
3	1399
3	2782
3	3352
3	3457
3	3598
3	3792
3	3904
3	4091
3	4940
4	5
4	6
4	12
4	13
4	15
4	16
4	18
4	19
4	23
4	30
4	36
4	40
4	53
4	62
4	64
4	69
4	74
4	80
4	83
4	86
4	87
4	93
4	99
4	102
4	114
4	117
4	154
4	157
4	174
4	180
4	192
4	194
4	200
4	207
4	218
4	227
4	249
4	253
4	286
4	288
4	297
4	316
4	326
4	377
4	390
4	405
4	440
4	449
4	463
4	524
4	553
4	555
4	577
4	634
4	647
4	652
4	657
4	676
4	678
4	685
4	697
4	718
4	729
4	804
4	808
4	816
4	985
4	1113
4	1134
4	1172
4	1219
4	1227
4	1228
4	1367
4	1413
4	1428
4	1535
4	1684
4	1698
4	1797
4	1812
4	1825
4	1843
4	1888
4	1900
4	1913
4	1934
4	1953
4	1991
4	2008
4	2018
4	2027
4	2066
4	2082
4	2220
4	2244
4	2309
4	2323
4	2347
4	2417
4	2418
4	2423
4	2426
4	2468
4	2526
4	2528
4	2784
4	2829
4	2952
4	3011
4	3046
4	3047
4	3104
4	3201
4	3235
4	3390
4	3475
4	3492
4	3540
4	3556
4	3613
4	3668
4	3671
4	3717
4	3737
4	3938
4	3951
4	4043
4	4052
4	4180
4	4190
4	4400
4	4565
4	4624
4	4643
4	4671
4	4746
4	4825
4	4844
4	4907
4	4929
5	11
5	12
5	22
5	24
5	30
5	33
5	34
5	39
5	42
5	62
5	67
5	135
5	327
5	347
5	507
5	609
5	757
5	778
5	865
5	1111
5	1330
5	1378
5	1425
5	1464
5	1524
5	2044
5	2522
5	2706
5	2823
5	2909
5	2975
5	3114
5	3393
5	3400
5	3408
5	3462
5	3514
5	3888
5	3924
5	4636
6	9
6	29
6	31
6	37
6	50
6	55
6	60
6	82
6	101
6	105
6	110
6	115
6	133
6	143
6	148
6	154
6	161
6	182
6	191
6	203
6	231
6	248
6	303
6	318
6	336
6	356
6	370
6	397
6	406
6	408
6	416
6	431
6	447
6	452
6	464
6	472
6	616
6	617
6	715
6	751
6	766
6	809
6	847
6	902
6	959
6	1015
6	1070
6	1082
6	1100
6	1122
6	1153
6	1163
6	1309
6	1325
6	1347
6	1369
6	1414
6	1420
6	1443
6	1459
6	1536
6	1553
6	1596
6	1599
6	1625
6	1745
6	1760
6	1826
6	1961
6	1986
6	2099
6	2203
6	2284
6	2471
6	2544
6	2647
6	2692
6	2709
6	2814
6	2829
6	2996
6	3038
6	3068
6	3074
6	3228
6	3254
6	3491
6	3604
6	3641
6	3656
6	3826
6	3866
6	4079
6	4195
6	4303
6	4381
6	4383
6	4419
6	4450
6	4526
6	4948
6	4950
6	4963
7	59
7	129
7	586
7	1000
7	1004
7	1631
7	1724
7	2266
7	2657
7	3402
7	3620
8	10
8	14
8	20
8	26
8	117
8	121
8	278
8	490
8	504
8	611
8	700
8	1120
8	1640
8	1945
8	2322
8	2538
8	4035
8	4050
8	4519
8	4522
8	4736
9	104
9	124
9	149
9	234
9	347
9	349
9	417
9	482
9	512
9	569
9	716
9	783
9	788
9	839
9	997
9	1069
9	1210
9	1472
9	1514
9	1516
9	1598
9	1813
9	1985
9	2006
9	2551
9	2950
9	3359
9	3523
9	3930
9	4022
9	4184
10	32
10	51
10	58
10	85
10	95
10	105
10	108
10	121
10	206
10	233
10	406
10	519
10	633
10	645
10	724
10	735
10	782
10	830
10	884
10	931
10	1019
10	1053
10	1302
10	1559
10	1620
10	1739
10	1768
10	1990
10	2012
10	2111
10	2410
10	3067
10	3196
10	3252
10	3305
10	3478
10	3525
10	3574
10	3700
10	3705
10	3710
10	3904
10	4036
10	4051
10	4185
10	4235
10	4828
11	61
11	225
11	231
11	245
11	298
11	324
11	341
11	357
11	382
11	422
11	451
11	597
11	638
11	786
11	803
11	925
11	1062
11	1485
11	1587
11	1651
11	1931
11	1957
11	1987
11	2059
11	2070
11	2456
11	2663
11	2737
11	2775
11	3151
11	3242
11	3374
11	3410
11	3479
11	3486
11	3993
11	4127
11	4138
11	4824
12	37
12	84
12	205
12	344
12	389
12	1167
12	1230
12	1430
12	1497
12	1809
12	2136
12	2225
12	2235
12	2745
12	2765
12	2968
12	3035
12	4188
12	4435
12	4929
13	26
13	40
13	116
13	128
13	474
13	1288
13	1427
13	1801
13	2019
13	2020
13	3152
13	3382
13	3406
13	3453
13	4467
13	4726
14	123
14	134
14	149
14	280
14	394
14	561
14	790
14	1716
14	2253
14	2462
14	2569
14	3830
14	4456
15	46
15	47
15	73
15	118
15	127
15	131
15	142
15	188
15	216
15	235
15	237
15	258
15	281
15	329
15	331
15	376
15	383
15	385
15	432
15	436
15	446
15	550
15	566
15	581
15	602
15	673
15	688
15	694
15	756
15	952
15	1022
15	1059
15	1108
15	1139
15	1180
15	1253
15	1263
15	1376
15	1425
15	1530
15	1542
15	1630
15	1657
15	2004
15	2126
15	2249
15	2496
15	2540
15	2552
15	2609
15	2701
15	2746
15	2767
15	2882
15	3017
15	3051
15	3211
15	3425
15	3463
15	3793
15	3902
15	4569
15	4596
15	4614
15	4645
15	4796
15	4962
16	21
16	33
16	43
16	49
16	68
16	96
16	113
16	146
16	148
16	151
16	167
16	202
16	219
16	246
16	317
16	325
16	384
16	391
16	428
16	478
16	506
16	509
16	515
16	565
16	576
16	585
16	588
16	630
16	666
16	745
16	797
16	987
16	1013
16	1107
16	1272
16	1365
16	1374
16	1379
16	1444
16	1460
16	1531
16	1545
16	1691
16	1754
16	1780
16	1908
16	1927
16	2048
16	2290
16	2351
16	2658
16	2771
16	2774
16	2785
16	2957
16	3381
16	3407
16	3815
16	3929
16	4008
16	4057
16	4075
16	4588
16	4653
16	4716
16	4735
16	4935
17	38
17	46
17	52
17	147
17	346
17	482
17	570
17	612
17	932
17	975
17	1675
17	1782
17	1785
17	2139
17	2191
17	2230
17	2466
17	2931
17	2972
17	3091
17	3392
17	3626
17	3739
17	3948
17	4041
17	4096
17	4135
17	4154
17	4240
17	4434
17	4476
17	4747
18	51
18	54
18	111
18	161
18	167
18	478
18	598
18	605
18	994
18	1014
18	1150
18	1780
18	2129
18	2195
18	2295
18	2453
18	3006
18	3537
18	4928
19	24
19	153
19	172
19	236
19	264
19	583
19	764
19	1562
19	2427
19	2739
19	3224
19	4688
20	165
20	168
20	392
20	564
20	901
20	1108
20	1114
20	1213
20	1243
20	1418
20	1682
20	1694
20	2055
20	2194
20	2274
20	2481
20	2508
20	2628
20	2718
20	3263
20	3698
20	4020
20	4296
20	4654
20	4761
20	4845
21	25
21	34
21	75
21	436
21	770
21	1268
21	1660
21	1951
21	2295
21	2418
21	2585
21	2686
21	3174
21	3325
21	4266
21	4842
22	42
22	76
22	151
22	152
22	157
22	158
22	174
22	345
22	617
22	1009
22	1121
22	1240
22	1409
22	1841
22	1943
22	2078
22	2167
22	2388
22	2547
22	2556
22	2888
22	3255
22	3410
22	3517
22	3574
22	4085
22	4232
22	4242
22	4717
22	4731
22	4856
22	4917
22	4972
22	4986
23	668
23	1580
23	2736
23	3092
23	3859
24	27
24	35
24	72
24	134
24	579
24	889
24	1396
24	1907
24	2031
24	2041
24	2669
24	3314
24	3474
24	4217
24	4494
25	35
25	135
25	190
25	193
25	221
25	255
25	280
25	335
25	379
25	448
25	678
25	727
25	810
25	1433
25	1528
25	1743
25	1757
25	1764
25	2482
25	2500
25	2685
25	2923
25	3395
25	3415
25	3665
25	4140
25	4218
25	4303
25	4349
25	4351
25	4509
25	4846
26	29
26	64
26	65
26	84
26	91
26	109
26	128
26	171
26	260
26	291
26	295
26	522
26	527
26	575
26	613
26	663
26	860
26	993
26	1044
26	1116
26	1243
26	1322
26	1813
26	1833
26	1905
26	1961
26	2049
26	2121
26	2229
26	2250
26	2395
26	2547
26	2610
26	2642
26	2811
26	2820
26	2822
26	2892
26	3026
26	3201
26	3469
26	3654
26	3799
26	3928
26	3971
26	4033
26	4267
27	44
27	56
27	90
27	92
27	106
27	119
27	164
27	168
27	288
27	290
27	294
27	334
27	374
27	378
27	454
27	511
27	526
27	539
27	640
27	712
27	741
27	788
27	808
27	918
27	1088
27	1630
27	1662
27	1697
27	1809
27	1875
27	1906
27	2146
27	2251
27	2261
27	2310
27	2604
27	2886
27	2916
27	2927
27	2962
27	3139
27	3232
27	3247
27	3333
27	3684
27	3726
27	3983
27	4005
27	4107
27	4223
27	4342
27	4504
27	4613
27	4669
27	4797
27	4943
27	4976
28	180
28	342
28	558
28	747
28	1021
28	1693
28	1909
28	2959
28	3126
28	3227
28	3402
28	3485
28	3585
28	3697
28	3782
28	4597
28	4842
29	31
29	224
29	245
29	281
29	437
29	626
29	869
29	985
29	1161
29	1750
29	1850
29	2032
29	2119
29	2513
29	2561
29	2707
29	3348
29	3854
29	3878
29	4346
29	4567
29	4721
29	4979
30	98
30	199
30	965
30	1254
30	1433
30	4708
31	39
31	55
31	56
31	181
31	242
31	250
31	282
31	443
31	515
31	538
31	579
31	584
31	592
31	649
31	749
31	832
31	859
31	861
31	862
31	944
31	967
31	1025
31	1257
31	1273
31	1274
31	1380
31	1556
31	1694
31	1953
31	2000
31	2422
31	2560
31	2942
31	2944
31	2960
31	3064
31	3076
31	3137
31	3155
31	3183
31	3283
31	3367
31	3590
31	3725
31	3860
31	3999
31	4049
31	4059
31	4109
32	81
32	82
32	155
32	466
32	474
32	494
32	595
32	907
32	945
32	980
32	1117
32	1323
32	1576
32	2314
32	2652
32	2743
32	3052
32	3149
32	3520
32	4730
33	48
33	59
33	97
33	127
33	188
33	232
33	313
33	541
33	665
33	697
33	725
33	730
33	873
33	947
33	1295
33	1459
33	1552
33	2079
33	2204
33	2217
33	2446
33	4126
33	4635
33	4646
34	58
34	204
34	310
34	3211
34	4672
35	71
35	89
35	163
35	171
35	311
35	333
35	415
35	528
35	603
35	644
35	657
35	761
35	766
35	837
35	1005
35	1191
35	1413
35	1418
35	1439
35	1451
35	1455
35	1669
35	1919
35	1969
35	2151
35	2280
35	2379
35	2973
35	3080
35	3197
35	3448
35	3509
35	3811
35	3919
35	4222
35	4380
35	4579
35	4719
36	2232
36	3829
37	41
37	53
37	81
37	108
37	130
37	259
37	430
37	469
37	513
37	1719
37	2967
38	494
38	512
38	533
38	543
38	578
38	1469
38	3011
38	3449
39	70
39	203
39	222
39	248
39	292
39	450
39	525
39	566
39	759
39	867
39	1000
39	2149
39	2208
39	2471
39	2905
39	3077
39	3187
39	3572
39	3995
39	4378
39	4590
39	4964
40	361
40	396
40	846
40	913
40	1190
40	2685
40	2864
40	3062
40	3223
40	3414
40	3441
40	4007
40	4057
40	4586
40	4592
41	93
41	144
41	183
41	213
41	303
41	974
41	1789
41	2164
41	2352
41	2792
41	2852
41	3436
41	3754
41	4066
42	223
42	508
42	674
42	738
42	882
42	2415
43	48
43	80
43	214
43	229
43	283
43	309
43	340
43	348
43	471
43	610
43	646
43	673
43	816
43	828
43	850
43	873
43	1222
43	1283
43	1606
43	1658
43	1769
43	1876
43	2126
43	2278
43	2566
43	2603
43	2764
43	3237
43	3323
43	3467
43	3954
43	4056
43	4104
44	136
44	331
44	332
44	535
44	857
44	916
44	4783
45	63
45	69
45	399
45	455
45	703
45	728
45	877
45	1395
45	1462
45	2142
45	2160
45	2178
45	2708
45	2749
45	3315
45	3756
45	3920
45	4340
45	4445
45	4542
46	562
46	923
46	1011
46	1064
46	1196
46	1211
46	1294
46	1302
46	1583
46	2030
46	3242
46	3283
46	4384
47	217
47	243
47	266
47	962
47	1099
47	1643
47	2553
48	131
48	340
48	471
48	511
48	696
48	704
48	780
48	832
48	1028
48	1321
48	1446
48	1492
48	1532
48	1849
48	1924
48	2089
48	2108
48	2132
48	2383
48	2755
48	3156
48	3173
48	3281
48	3972
48	4384
48	4506
48	4621
49	52
49	54
49	76
49	95
49	115
49	125
49	138
49	153
49	186
49	196
49	266
49	277
49	334
49	335
49	338
49	364
49	376
49	390
49	392
49	402
49	403
49	407
49	423
49	585
49	610
49	638
49	675
49	707
49	731
49	755
49	763
49	812
49	822
49	1094
49	1114
49	1370
49	1461
49	1591
49	1618
49	1799
49	1848
49	1899
49	1941
49	1942
49	2339
49	2377
49	2382
49	2451
49	2495
49	2530
49	2562
49	2700
49	2860
49	2897
49	2909
49	3012
49	3131
49	3163
49	3215
49	3512
49	3692
49	3709
49	3831
49	3951
49	4219
49	4325
49	4591
49	4609
49	4648
49	4763
49	4867
50	66
50	72
50	88
50	145
50	252
50	395
50	401
50	589
50	646
50	672
50	712
50	748
50	863
50	987
50	1435
50	1463
50	1735
50	1811
50	1879
50	1932
50	1947
50	2201
50	2519
50	2821
50	3803
50	3830
50	3996
50	4421
50	4757
50	4855
52	63
52	162
52	421
52	468
52	559
52	767
52	1014
52	2178
52	2358
52	2373
52	2990
52	3423
52	3474
52	3558
52	3655
52	3810
52	4197
52	4228
52	4898
53	124
53	301
53	669
53	2987
54	119
54	166
54	441
54	534
54	733
54	743
54	863
54	1055
54	1074
54	1315
55	185
55	208
55	256
55	686
55	765
55	874
55	1002
55	1087
55	1101
55	1364
55	1505
55	1757
55	2148
55	2281
55	3077
55	3136
55	4309
55	4733
56	138
56	169
56	263
56	287
56	492
56	721
56	960
56	1182
56	1224
56	1383
56	1557
56	1702
56	1800
56	1819
56	1828
56	2077
56	2274
56	2748
56	3009
56	3567
56	3578
56	3640
56	4392
56	4471
56	4952
57	70
57	85
57	94
57	146
57	531
57	3545
58	227
58	302
58	1189
58	2529
58	3298
59	96
59	445
59	843
59	2293
59	4674
60	351
60	355
60	423
60	489
60	557
60	775
60	1221
60	1624
60	1638
60	3371
60	3959
61	66
61	120
61	132
61	189
61	238
61	308
61	333
61	601
61	706
61	990
61	1496
61	1618
61	1710
61	1846
61	2301
61	2505
61	2895
61	3069
61	3693
61	4115
61	4452
61	4477
61	4617
62	87
62	113
62	114
62	136
62	193
62	214
62	310
62	323
62	456
62	659
62	700
62	986
62	1110
62	1446
62	1480
62	1945
62	2224
62	2248
62	2353
62	2507
62	2809
62	2904
62	3081
62	3151
62	3455
62	3563
62	3851
62	4431
62	4541
63	366
63	419
63	3007
64	79
64	172
64	307
64	630
64	828
64	2333
64	2749
64	2763
64	2830
64	4141
64	4412
64	4776
65	132
65	152
65	209
65	222
65	261
65	270
65	326
65	371
65	408
65	500
65	714
65	1058
65	1150
65	1317
65	1441
65	2011
65	2213
65	2521
65	2539
65	2603
65	2633
65	2786
65	2887
65	3562
65	3838
65	4297
65	4657
65	4834
65	4897
65	4927
66	73
66	74
66	184
66	349
66	435
66	439
66	643
66	732
66	1188
66	1310
66	1398
66	1445
66	1514
66	2000
66	2961
66	3024
66	3110
66	3295
66	3416
66	3562
66	3670
66	3923
66	4315
66	4393
66	4673
66	4755
66	4758
66	4852
67	107
67	219
67	823
67	1129
67	1329
67	1607
67	1755
67	1927
67	2142
67	2456
67	3231
67	3573
67	3764
67	4031
67	4117
67	4304
68	160
68	243
68	262
68	596
68	737
68	852
68	1072
68	1135
68	1157
68	1287
68	1397
68	1660
68	1672
68	1893
68	2716
68	3124
68	3406
68	3550
68	3630
69	77
69	89
69	100
69	101
69	142
69	162
69	170
69	181
69	187
69	244
69	279
69	343
69	521
69	616
69	626
69	701
69	724
69	883
69	918
69	975
69	1051
69	1271
69	1356
69	1436
69	1503
69	1567
69	1753
69	1796
69	1997
69	2038
69	2139
69	2247
69	2336
69	2581
69	2682
69	3029
69	3176
69	3198
69	3224
69	3252
69	3324
69	3428
69	3514
69	3759
69	3818
69	3968
70	129
70	455
70	723
70	1270
70	1333
70	2929
70	2988
71	183
71	254
71	829
71	839
71	1311
71	2156
72	100
72	191
72	265
72	307
72	396
72	424
72	458
72	627
72	926
72	1171
72	1320
72	2478
72	3458
72	3542
72	3710
72	4034
72	4128
72	4311
72	4353
72	4580
72	4665
74	83
74	173
74	220
74	493
74	978
74	1005
74	1177
74	1496
74	2397
74	2869
74	3326
74	3844
74	3891
75	112
75	126
75	137
75	177
75	363
75	470
75	484
75	537
75	623
75	795
75	1265
75	1864
75	2146
75	2212
75	2269
75	2368
75	2553
75	2624
75	2739
75	3362
75	3634
75	3787
75	3941
75	4031
75	4125
76	1034
76	3762
76	3813
77	145
77	211
77	286
77	402
77	600
77	783
77	844
77	951
77	1029
77	1086
77	1427
77	1428
77	1499
77	1516
77	1527
77	1672
77	3658
77	3868
77	3869
78	164
78	179
78	187
78	190
78	294
78	375
78	572
78	1027
78	1058
78	1242
78	1926
78	2034
78	2102
78	2148
78	2173
78	2371
78	2906
78	2984
78	3050
78	3496
78	3885
78	3909
78	4045
78	4942
79	90
79	92
79	247
79	452
79	838
79	941
79	957
79	971
79	1131
79	2911
80	205
80	360
80	848
80	886
80	3558
80	4196
80	4615
80	4847
81	798
81	1168
81	1622
81	2057
81	2089
81	2957
81	3338
81	3714
81	4278
81	4322
81	4874
82	104
82	126
82	160
82	165
82	194
82	239
82	360
82	502
82	532
82	572
82	592
82	654
82	746
82	812
82	969
82	1056
82	1173
82	1373
82	1513
82	1530
82	1624
82	2028
82	2287
82	2292
82	2317
82	2528
82	2551
82	2751
82	3000
82	3476
82	4179
82	4278
82	4309
82	4324
82	4332
82	4420
82	4445
82	4724
82	4747
82	4812
82	4907
83	1845
83	2081
84	123
84	701
84	1235
84	2002
84	2193
84	2324
84	2969
84	3031
84	3208
84	3477
84	3964
85	122
85	226
85	277
85	356
85	409
85	505
85	542
85	574
85	768
85	891
85	963
85	983
85	1412
85	1563
85	2297
85	2726
85	2898
85	3465
85	4094
85	4106
85	4375
85	4492
85	4776
86	241
86	327
86	375
86	495
86	639
86	924
86	1145
86	1159
86	2736
86	2826
86	4218
86	4533
87	94
87	109
87	158
87	354
87	465
87	620
87	633
87	722
87	849
87	950
87	1031
87	1110
87	1267
87	1308
87	1361
87	1421
87	1497
87	1510
87	1587
87	1595
87	1736
87	1995
87	2403
87	2472
87	2501
87	2842
87	3058
87	3215
87	3297
87	3780
87	4048
87	4184
88	274
88	765
88	890
88	1053
88	1298
88	1542
88	3841
89	185
89	1003
89	1236
89	1295
89	2789
89	2856
89	3807
90	473
90	806
90	1401
90	1723
90	2045
90	2427
90	2977
90	3128
91	229
91	237
91	956
91	1030
91	1390
91	1923
91	1962
91	1990
91	2086
91	2311
91	3138
91	3950
92	103
92	163
92	210
92	488
92	534
92	655
92	966
92	1281
92	1336
92	1342
92	1575
92	1603
92	1626
92	2335
92	2490
92	2969
92	3846
92	4388
92	4690
93	207
93	220
93	296
93	433
93	580
93	1604
93	2656
94	111
94	197
94	273
94	549
94	581
94	1154
94	1168
94	1306
94	1438
94	1714
94	2554
94	3500
94	4122
94	4273
94	4900
95	666
95	758
95	911
95	955
95	1394
95	1508
95	2067
95	2474
95	4087
96	173
96	202
96	424
96	497
96	1130
96	1331
96	1475
96	1855
96	2187
96	2548
96	2555
96	2897
96	3007
96	3049
96	3120
96	3444
96	3583
96	4983
97	898
97	2080
97	4368
98	878
98	1760
98	3117
99	225
99	399
99	460
99	1036
99	2138
99	3209
99	3349
99	4463
99	4816
100	251
100	420
100	520
100	645
100	670
100	726
100	1018
100	1480
100	1539
100	2130
101	141
101	283
101	503
101	555
101	649
101	842
101	994
101	1146
101	1301
101	1335
101	1534
101	1661
101	1802
101	2602
101	2921
101	3125
101	3344
101	3837
101	4211
101	4708
101	4831
101	4883
102	258
102	504
102	582
102	602
102	944
102	2644
103	279
103	361
103	661
103	711
103	752
103	919
103	1217
103	1256
103	1312
103	1529
103	1949
103	2054
103	2231
103	2375
103	2563
103	2953
103	3096
103	3791
103	4111
103	4394
104	139
104	568
104	582
104	2087
104	3717
105	909
105	1134
105	1147
105	1225
105	2039
105	2455
105	3857
105	3930
105	4030
105	4272
106	1155
106	1575
106	3373
106	4326
107	216
107	314
107	389
107	861
107	1371
107	1592
107	4256
107	4261
107	4353
108	2063
108	3303
108	3699
109	270
109	637
109	1227
109	1924
109	2905
110	393
110	457
110	507
110	659
110	667
110	1035
110	2903
110	4649
111	309
111	366
111	405
111	485
111	1061
111	1475
111	1659
111	1880
111	1911
111	2033
111	2222
111	2262
111	2343
111	2533
111	2756
111	2885
111	3132
111	3220
111	3482
111	3781
111	3856
111	3981
111	4038
111	4083
111	4593
112	120
112	419
112	425
112	493
112	531
112	639
112	699
112	739
112	1300
112	1361
112	1493
112	1498
112	1703
112	2368
112	2635
112	2726
112	2808
112	3880
112	3912
112	4672
112	4777
112	4871
112	4945
113	249
113	254
113	352
113	365
113	691
113	1808
113	1826
113	2106
113	2590
113	3757
114	322
114	486
114	680
114	719
114	720
114	888
114	1099
114	1429
114	1699
114	1871
114	2001
114	2096
114	3130
114	3457
114	3942
114	4697
114	4741
114	4826
115	776
115	984
115	991
115	1297
115	1896
115	2706
115	3646
115	4256
115	4632
115	4656
116	343
116	815
116	1240
116	1449
116	4300
116	4620
117	460
117	1339
117	1664
117	2074
117	3640
117	4517
118	774
118	818
118	1561
118	1722
118	3240
118	4917
119	228
119	272
119	629
119	741
119	803
119	1835
119	3164
119	3658
119	4454
119	4479
120	479
120	528
120	648
120	875
120	1867
120	1948
120	2209
120	2963
120	3422
120	3569
120	3981
120	3996
120	4100
120	4451
120	4971
121	483
121	519
121	1010
121	2689
121	4022
121	4538
122	3259
122	3288
122	3588
122	3816
123	1705
124	472
124	787
124	1121
124	1960
125	400
125	1421
125	1845
125	3214
125	3589
125	3602
125	3707
125	3892
125	3961
125	4461
126	144
126	285
126	339
126	387
126	409
126	440
126	986
126	1348
126	1374
126	2518
126	3067
126	4271
126	4705
127	385
127	497
127	721
127	2048
127	2853
127	3356
127	3479
127	4224
128	299
128	346
128	635
128	2040
128	2088
128	2128
128	2376
128	3735
128	4245
129	291
129	949
129	1195
129	1974
129	2600
129	3485
129	3502
129	3676
129	4482
130	150
130	418
130	670
130	1392
130	1857
130	1981
130	3718
131	170
131	686
131	794
131	1491
131	1519
131	1741
131	1835
131	1904
131	2300
131	2695
131	2980
131	3511
131	3808
131	4601
131	4633
131	4906
132	250
132	301
132	315
132	894
132	1307
132	1891
132	2122
132	2568
132	2598
132	3124
132	3289
132	4440
132	4554
132	4869
132	4998
134	299
134	1081
134	2100
134	2441
134	2541
134	3411
134	3779
135	159
135	496
135	1066
135	1965
135	4472
136	620
136	681
136	1090
136	1344
136	1578
136	1762
136	2037
136	2989
137	150
137	156
137	365
137	548
137	677
137	859
137	1043
137	1266
137	3777
138	1022
138	2120
139	169
139	176
139	257
139	337
139	591
139	1060
139	1211
139	1332
139	1570
139	1603
139	2752
139	3874
140	147
140	275
140	328
140	417
140	435
140	453
140	535
140	618
140	650
140	705
140	756
140	757
140	817
140	965
140	983
140	1067
140	1073
140	1139
140	1219
140	1538
140	1715
140	1832
140	1846
140	1879
140	1939
140	1943
140	1970
140	2117
140	2638
140	2710
140	2851
140	2954
140	3286
140	3945
140	4250
140	4798
140	4884
141	201
141	315
141	323
141	363
141	550
141	999
141	1102
141	1318
141	2305
141	2402
141	2879
141	4969
142	302
142	586
142	785
142	906
142	935
142	970
142	1313
142	2564
142	3164
142	4636
142	4955
143	178
143	182
143	300
143	426
143	943
143	997
143	1200
143	1464
143	1555
143	1914
143	2050
143	2679
143	3122
143	3538
143	3541
144	386
144	387
144	759
144	3407
144	3881
144	4675
145	198
145	308
145	506
145	648
145	1032
145	2313
145	2637
145	2916
145	3365
145	3877
145	4245
145	4389
146	159
146	429
146	480
146	488
146	885
146	2254
146	2396
146	3747
146	4358
146	4988
147	155
147	442
147	481
147	775
147	1314
147	1972
147	2186
147	2777
147	3484
147	4110
147	4246
148	269
148	379
148	594
148	636
148	641
148	705
148	722
148	754
148	2399
148	3135
148	3424
148	3841
148	4647
148	4814
149	252
149	479
149	499
149	571
149	771
149	1365
149	2643
149	2755
149	2966
149	3649
149	4039
149	4068
149	4395
149	4548
149	4680
149	4949
150	244
150	274
150	350
150	412
150	755
150	1316
150	1406
150	2181
150	2839
150	3177
150	4285
150	4407
150	4706
151	438
151	824
151	969
151	1229
151	1305
151	1801
151	2101
151	2562
151	3256
151	3321
151	3534
151	3629
151	3774
151	4269
151	4487
151	4830
152	407
152	485
152	954
152	1158
152	1490
152	2408
152	3460
152	3607
152	3811
152	4806
153	431
153	653
153	703
153	1077
153	1095
153	1201
153	2205
153	2778
153	2908
153	3299
153	3938
153	4084
153	4241
153	4271
154	246
154	319
154	1984
154	4080
154	4097
154	4854
154	4893
155	261
155	883
155	1055
155	2030
155	2372
155	3054
156	184
156	433
156	687
156	838
156	1355
156	1487
156	1728
156	2291
156	2742
156	3133
156	3585
156	3599
156	3786
156	3889
156	4732
156	4919
157	269
157	454
157	501
157	565
157	600
157	1276
157	1477
157	1749
157	2206
157	2301
157	2340
157	2349
157	2982
157	3062
157	3236
157	3312
157	3424
157	3883
157	4104
157	4330
157	4537
157	4681
158	176
158	395
158	410
158	418
158	444
158	717
158	826
158	887
158	1233
158	1366
158	3516
158	3768
158	4070
158	4147
159	543
159	917
159	1203
159	1467
159	1523
159	1894
159	3172
159	3334
160	212
160	230
160	278
160	342
160	671
160	906
160	1027
160	1047
160	1296
160	1859
160	2189
160	2855
160	2861
160	3075
160	3383
160	3936
160	4712
161	358
161	520
161	1286
161	1776
161	1921
161	2174
161	2688
161	2889
161	3719
161	4405
161	4903
161	4946
162	260
162	880
162	1473
162	2661
162	3339
162	3933
162	4669
163	421
163	599
163	1045
163	1106
163	1217
163	1368
163	1439
163	1851
163	1856
163	1976
163	2239
163	2348
163	2785
163	2850
163	3032
163	3202
163	3662
163	3702
163	3715
163	4148
163	4170
163	4491
163	4992
164	869
164	3248
164	3943
164	4659
165	305
165	383
165	1048
165	1070
165	2488
165	3227
166	271
166	522
166	549
166	4683
167	940
167	2620
168	3086
168	3991
169	336
169	1284
169	1350
169	4570
170	233
170	631
170	1328
170	1766
170	1852
170	3160
170	4254
170	4321
170	4407
170	4581
170	4802
171	179
171	921
171	4508
172	178
172	209
172	413
172	698
172	1538
172	2259
172	3117
172	4329
173	276
173	305
173	330
173	362
173	422
173	843
173	1093
173	1151
173	1642
173	1979
173	2174
173	2365
173	2397
173	2428
173	2595
173	2659
173	2711
173	3863
173	3890
173	4081
173	4194
173	4439
173	4677
173	4775
174	338
174	575
174	675
174	893
174	1814
174	2595
174	2998
174	3648
174	4470
175	239
175	1641
175	1968
175	2359
175	3336
175	3642
176	208
176	264
176	372
176	502
176	824
176	979
176	1166
176	1837
176	2170
176	2210
176	2223
176	2388
176	3229
176	3619
177	186
177	257
177	591
177	805
177	932
177	1143
177	1216
177	1488
177	1594
177	2188
177	2850
177	3185
177	4158
178	200
178	865
178	1090
178	1162
178	1868
178	1932
178	2654
178	2657
178	2703
178	2830
178	2860
178	3180
178	3398
178	3563
178	3590
178	3721
178	3835
178	3954
178	4038
178	4762
179	368
179	825
179	1259
179	1806
179	2695
179	3107
179	3203
179	4174
180	679
180	1500
180	2384
180	2933
180	4665
181	224
181	622
181	658
181	790
181	1079
181	1109
181	1471
181	1558
181	1685
181	2184
181	2405
181	2516
181	2529
181	2591
181	2656
181	3157
181	3321
181	3377
181	3994
181	4237
181	4546
181	4559
181	4694
182	197
182	1260
182	1454
182	2859
182	2922
182	4160
183	394
184	1787
184	2152
185	1505
185	3203
185	3716
186	432
186	750
186	902
186	1838
186	4202
187	517
187	753
187	1683
187	4154
188	247
188	443
188	446
188	538
188	588
188	1003
188	1073
188	1208
188	1773
188	2005
188	2097
188	2140
188	2328
188	2694
188	3874
188	3982
188	4444
188	4583
188	4890
189	2352
189	2414
189	3956
190	218
190	353
190	411
190	451
190	784
190	1988
190	3207
190	3541
190	3674
190	3992
190	4018
190	4356
191	195
191	370
191	1549
192	1507
192	1541
192	1730
192	1738
192	1962
192	4493
192	4863
193	213
193	1001
193	1424
193	2824
193	4773
194	857
194	911
194	933
194	980
194	1051
194	1065
194	1398
194	1550
194	1667
194	1734
194	1785
194	2171
194	2404
194	2614
194	2738
194	4128
195	2016
196	317
196	380
196	461
196	615
196	689
196	1084
196	1261
196	1330
196	1774
196	2483
196	3976
196	4207
196	4899
197	1969
197	2141
198	284
198	905
198	1649
198	1926
198	3970
198	4986
199	236
199	2318
199	3379
200	819
200	934
200	1895
200	2428
201	211
201	228
201	263
201	272
201	319
201	475
201	597
201	891
201	1298
201	1600
201	1761
201	2243
201	2903
201	3446
201	3910
201	4117
202	3414
202	4155
203	223
203	235
203	282
203	329
203	1137
203	1272
203	1390
203	1547
203	1580
203	2191
203	2275
203	2481
203	3175
203	3342
203	4039
203	4238
203	4619
205	206
205	230
205	297
205	450
205	604
205	922
205	941
205	1165
205	1465
205	1754
205	2525
205	3229
205	4773
205	4868
205	4984
206	215
206	285
206	412
206	437
206	525
206	811
206	2068
206	2330
206	2414
206	3003
206	3960
207	623
207	1229
207	1806
207	2941
207	3261
208	1332
208	3165
208	3570
208	3601
208	4210
209	215
209	221
209	268
209	332
209	369
209	457
209	587
209	903
209	1149
209	1432
209	2022
209	2130
209	2734
209	3411
209	3568
209	4082
209	4979
210	311
210	509
210	524
210	819
210	1366
210	1812
210	1872
210	2017
210	2217
210	2924
210	2966
211	1688
211	1788
211	3897
212	1901
213	1504
214	313
214	1957
214	2289
214	2796
214	3097
214	4584
216	320
216	348
216	539
216	1858
216	2845
216	3629
216	4047
217	240
217	339
217	1103
217	1674
217	1853
217	2958
217	3438
217	3515
217	4176
218	1579
219	287
219	290
219	414
219	489
219	737
219	742
219	858
219	3087
219	3216
219	3388
219	3671
219	3882
219	4734
221	226
221	464
221	614
221	1181
221	1226
221	1245
221	2163
221	2270
221	2935
221	3921
221	4232
221	4499
221	4658
222	259
222	773
222	979
222	2622
223	374
223	2401
223	2820
223	3158
224	377
224	2567
224	3789
224	4068
224	4876
225	1223
225	1571
225	1607
225	1827
225	2381
225	2515
225	3167
225	4301
226	242
226	499
226	1513
226	2363
226	4996
227	444
227	725
227	781
227	2852
227	3408
227	3525
227	3918
227	3921
227	4557
228	295
228	462
228	643
228	693
228	745
228	814
228	1345
228	1643
228	1673
228	2743
228	3189
228	3208
228	4114
228	4372
228	4436
228	4464
231	739
231	964
231	1287
231	2664
231	2982
231	3939
231	4014
232	386
232	462
232	476
232	952
232	1251
232	1829
232	1939
232	1963
232	2219
232	4376
233	743
233	881
233	905
233	1190
233	1680
233	1772
233	2457
233	2849
233	3223
233	3842
233	4307
234	337
234	580
234	671
234	834
234	1930
234	2249
234	2261
234	3431
234	3839
235	292
235	715
235	776
235	1595
235	1636
235	1681
235	4052
237	613
237	668
237	792
237	1206
237	1605
237	1698
237	1747
237	1829
237	2119
237	2714
237	3028
237	3727
237	4201
237	4276
237	4528
238	256
238	2460
238	4588
238	4891
239	289
239	293
239	388
239	498
239	537
239	558
239	595
239	619
239	833
239	868
239	1222
239	1544
239	1594
239	1651
239	1657
239	1793
239	1824
239	1869
239	2282
239	2303
239	2464
239	2647
239	2882
239	2893
239	3905
239	3932
239	4103
239	4115
239	4298
239	4670
239	4840
239	4957
239	4961
240	312
240	354
240	674
240	841
240	1192
240	1802
240	2349
240	2393
240	2445
240	3084
240	3855
240	4265
240	4442
241	500
241	778
241	929
241	953
241	1124
241	1645
241	1982
241	2065
241	2214
241	3093
241	3302
241	3901
241	3928
241	4108
241	4294
241	4408
241	4507
242	341
242	477
242	644
242	1476
242	4051
242	4088
243	660
243	746
243	823
243	1025
243	1830
243	1887
243	1897
243	3548
244	606
244	1317
244	4297
245	404
245	683
245	732
245	2085
245	2114
245	2196
245	2663
245	2791
245	3530
245	4684
245	4745
246	447
246	560
246	930
246	1875
246	1922
246	2425
246	2937
246	3020
246	3740
246	4113
247	1997
247	2861
247	3020
248	593
248	1017
248	1157
248	1351
248	1674
248	1782
248	2068
249	381
249	426
249	772
249	996
249	1545
249	2433
249	2959
249	3957
250	324
250	527
250	1085
250	1218
250	1319
250	1526
250	1569
250	1863
250	1899
250	2019
250	2574
250	3081
250	3704
250	3979
250	4172
251	322
251	393
251	469
251	547
251	938
251	1212
251	1483
251	2053
251	2159
251	2409
251	2846
251	3727
251	4780
252	373
252	660
252	835
252	901
252	1131
252	1232
252	2037
252	2734
252	3148
252	3911
252	4331
253	449
253	1282
253	1525
253	3647
253	3751
254	505
254	1402
254	2977
255	866
255	3257
255	4934
256	1038
256	4177
257	3669
257	3864
257	4668
258	615
258	679
258	1094
258	1251
260	1060
260	3984
260	4358
261	262
261	1013
261	1718
261	1883
262	1320
262	2434
263	273
263	573
263	786
263	878
263	1205
263	1375
263	1500
263	1910
263	2260
263	2607
263	3966
263	4709
264	1098
265	276
265	1161
265	2034
266	398
267	1089
267	3430
268	300
269	461
269	976
269	1128
269	1975
269	2022
269	2243
269	3396
269	3603
269	4123
270	428
270	430
270	2102
270	2206
270	3104
270	4286
272	634
272	1784
272	3320
272	3622
272	4274
273	293
273	413
273	465
273	685
273	779
273	974
273	1719
273	1724
273	1777
273	1778
273	2056
273	2362
273	3150
273	4169
274	368
274	1794
274	3034
274	3233
274	3701
274	4832
275	553
275	749
275	1277
275	1938
275	2960
275	3432
275	3565
275	4063
275	4409
275	4475
276	1248
276	1364
277	320
277	381
277	514
277	658
277	793
277	829
277	1988
277	2172
277	2273
277	2570
277	2696
277	3362
277	3521
277	3775
277	3918
277	4484
278	306
278	2786
279	312
279	458
279	1077
279	1714
279	2110
279	3177
279	3284
279	3470
279	4483
280	490
280	769
280	1535
280	1985
281	321
281	545
281	750
281	758
281	762
281	773
281	1661
281	2076
281	3088
281	3631
282	296
282	1125
282	1169
282	1791
282	2093
282	2753
283	415
283	704
283	1066
283	1230
283	1416
283	1589
283	1818
283	2679
283	2865
283	2934
283	3055
283	3310
283	4532
284	473
284	551
284	635
284	664
284	1091
284	1195
284	1872
284	2890
285	677
285	2308
286	397
286	517
286	564
286	963
286	1054
286	1524
286	2267
286	3024
286	3765
286	4516
287	456
287	583
287	2087
287	2577
288	1339
288	1409
288	1472
288	1807
288	2371
288	3738
288	3907
288	4197
288	4302
289	1261
290	330
290	351
290	761
290	937
290	1133
290	1185
290	1392
290	2531
290	4105
291	367
291	554
291	624
291	871
291	1499
291	1647
291	1937
291	2189
291	3181
291	3294
291	3730
291	4611
292	880
292	2731
292	3615
293	388
293	927
293	950
293	1322
293	1328
293	1960
293	2026
293	2270
293	2448
293	3133
293	3565
293	3897
293	3902
293	4114
294	1795
295	442
295	463
295	714
295	848
295	860
295	971
295	1228
295	2002
295	3692
295	4041
295	4566
296	316
296	359
296	438
296	536
296	598
296	733
296	1036
296	1063
296	1264
296	1396
296	2454
296	2774
296	2797
296	3041
296	3180
296	3287
296	4363
297	1360
299	411
299	1548
299	2847
300	544
300	1395
300	1519
300	2493
300	3526
300	3881
300	4165
301	1215
301	1720
301	2569
303	427
303	486
303	545
303	563
303	622
303	708
303	709
303	818
303	1127
303	1591
303	1763
303	1805
303	2120
303	2446
303	2534
303	2816
304	608
304	907
304	1187
304	4765
305	2004
305	2123
305	2219
305	3276
305	3776
305	4678
305	4752
306	496
306	546
306	1434
306	3464
307	429
307	554
307	1356
307	2338
308	584
308	1291
308	2075
308	2385
310	321
310	695
310	784
310	1590
310	1695
310	2598
310	3157
310	3618
310	3783
310	3920
310	4028
310	4181
310	4365
310	4862
312	355
312	1016
312	1678
312	2277
312	2416
312	3686
312	4467
312	4780
313	647
313	1978
313	2092
313	2722
313	3554
313	4599
314	1854
315	1278
315	2978
315	4401
316	3760
317	780
317	827
317	1111
317	1487
317	1492
317	1494
317	1560
317	1948
317	2192
317	2315
317	2612
317	2645
317	4429
317	4901
318	459
318	931
318	1925
319	466
319	717
319	813
319	845
319	886
319	1327
319	1485
319	2085
319	2510
319	3089
319	3183
319	4116
319	4462
320	328
320	2104
320	2636
321	734
321	3733
322	799
322	2171
323	3584
324	1082
324	1998
324	2391
324	4253
325	837
325	1122
325	1758
325	2631
327	563
327	1763
327	3304
328	439
328	719
328	1775
328	4098
329	1057
329	1611
329	1715
329	2741
329	2900
329	3079
329	3166
329	3262
329	3722
329	3895
329	4084
329	4469
329	4836
330	521
330	851
330	2981
330	3461
330	4140
331	559
331	702
331	1006
331	1890
331	3914
331	4819
332	404
332	836
332	1107
332	1338
332	2571
332	2720
332	3316
332	3998
332	4185
332	4631
333	371
333	420
333	491
333	684
333	1004
333	1103
333	2764
333	2974
333	3363
333	4500
333	4629
333	4639
333	4830
334	344
334	707
334	805
334	1174
334	1252
334	1352
334	1468
334	1520
334	2187
334	4316
334	4662
334	4905
335	345
335	968
335	2703
335	3380
336	621
336	4130
337	642
337	787
337	1126
337	1878
337	2144
337	2594
337	3433
337	4259
337	4790
337	4991
338	1291
338	1608
338	1989
338	4546
338	4896
339	523
339	544
339	729
339	877
339	1115
339	1303
339	1567
339	1573
339	1849
339	2299
339	2360
339	3571
339	3759
339	4078
339	4314
339	4459
340	369
340	487
340	662
340	849
340	1344
340	1463
340	1768
340	1773
340	1925
340	3876
341	410
341	567
341	1521
341	1701
342	1573
342	2907
343	669
343	856
343	1544
343	1655
343	1882
343	1898
343	2225
343	2235
343	2392
344	350
344	552
344	876
344	1668
344	1704
344	2588
344	3691
344	4220
345	4722
346	914
346	1407
346	1709
346	2389
346	2838
347	3778
347	4229
347	4444
348	359
348	574
348	628
348	793
348	1024
348	1158
348	1408
348	1610
348	1804
348	3093
348	3212
348	3697
348	3761
349	752
349	814
349	1061
349	1382
349	1431
349	1479
349	3925
350	2559
351	903
351	1799
352	1112
352	1451
352	1683
352	3561
353	483
353	862
354	476
354	501
354	2318
354	3536
354	3572
355	362
355	403
355	601
355	735
355	888
355	1078
355	1198
355	1239
355	1284
355	1397
355	1755
355	1839
355	2046
355	3616
355	3844
355	4011
356	1200
356	1654
356	3238
356	4289
357	2758
357	3513
358	364
358	1083
358	3540
358	3729
358	4105
358	4641
359	820
359	958
359	1577
359	3204
359	3686
360	740
360	1238
360	1349
360	1765
360	2091
360	2140
360	2413
360	2942
360	3663
361	416
361	481
361	801
361	821
361	1039
361	1289
361	1848
361	1874
361	2420
361	2843
361	3264
361	4064
361	4877
362	614
362	874
362	881
362	1023
362	1141
362	1810
362	1890
362	2009
362	2286
362	2387
362	2394
362	2485
362	3244
362	3617
362	4017
363	480
363	1983
363	3441
363	4298
363	4554
363	4562
364	434
364	794
364	4984
365	1539
365	2117
366	2340
367	1015
367	1318
367	2200
367	2263
367	2721
367	2912
367	3248
367	3664
368	682
368	1002
368	1410
368	1531
368	1911
368	2158
368	2931
368	3015
368	3192
368	3724
369	607
369	1593
369	2086
370	400
370	1311
370	2250
370	2342
370	2568
370	2844
370	2913
370	2955
370	3169
370	3439
370	3503
370	3670
370	3941
370	4862
371	1046
371	2079
371	2599
371	4376
372	427
372	690
372	807
372	900
372	1994
372	2611
372	3647
372	3728
372	4639
374	870
374	1098
374	4541
374	4913
375	619
375	882
375	2975
375	3368
375	4403
376	624
376	632
376	976
376	1182
376	1232
376	1645
376	3126
376	3139
376	4129
376	4288
377	378
377	508
377	661
377	1917
377	2125
377	2320
377	2458
377	2484
377	3368
377	4525
378	934
378	956
378	1096
378	1357
378	1410
378	1584
378	1677
378	2183
378	2499
378	2532
378	2560
378	2573
378	3797
378	3838
378	4116
378	4666
379	847
379	1362
379	1615
380	467
380	762
380	4769
381	652
382	2356
382	2794
382	3587
383	414
383	726
383	870
383	1241
383	1478
383	1525
383	1616
383	1751
383	2281
383	2690
383	3003
383	3103
383	3329
383	3755
383	4532
384	962
384	1041
384	1627
384	2612
385	587
385	856
385	964
385	1501
386	2992
386	4973
387	892
387	917
387	1520
387	2443
387	4282
387	4447
389	4169
390	1138
390	1655
392	468
392	606
392	1184
392	1189
392	1255
392	1275
392	2543
392	3147
392	4468
392	4628
393	593
393	4024
394	548
394	576
394	744
394	2135
394	2439
394	3992
394	4553
395	604
395	851
395	1204
395	2503
396	1250
396	3159
397	879
397	1256
398	871
398	1044
399	651
399	1095
399	1209
399	1808
399	3090
399	4342
400	1156
400	1461
400	3809
400	3963
400	4594
400	4826
400	4861
401	1009
401	1662
401	1666
401	2260
401	3637
401	4520
403	1400
403	2411
403	3476
403	4061
404	3817
405	1629
405	1729
405	2361
405	3192
405	3725
405	4504
405	4689
405	4920
406	459
406	556
406	781
406	2031
407	495
407	627
407	961
407	1644
407	2023
408	631
408	795
408	872
408	2137
409	663
409	1165
409	1244
409	1746
409	3241
409	4512
409	4843
410	1031
410	1273
410	2347
410	3528
411	1076
411	2575
411	4694
411	4788
412	1935
412	2730
413	487
413	1085
413	1696
413	2676
413	3194
413	4545
414	1030
414	2832
415	529
415	1220
415	2090
415	2182
415	2325
415	3627
415	3906
415	4319
415	4362
416	804
416	2131
416	2343
416	3090
419	540
419	656
419	1124
419	1193
419	2302
420	872
420	1382
420	2970
421	571
421	2464
422	448
422	518
422	562
422	731
422	923
422	1294
422	1304
422	1368
422	1691
422	1744
422	1822
422	1833
422	1901
422	1949
422	2298
422	2790
422	2979
422	3250
422	3373
422	3494
422	4072
422	4448
423	523
423	590
423	1234
423	2902
423	3610
423	3843
424	2629
424	3332
425	716
425	1598
425	1704
426	551
426	654
426	960
426	1196
426	1208
426	2364
426	2617
426	3306
426	4149
426	4882
426	4966
427	718
427	2523
427	2907
427	3656
427	3832
428	1001
428	4492
428	4539
428	4585
429	802
429	1377
429	4046
429	4318
430	940
430	2123
430	2625
431	760
431	988
431	1696
431	2327
433	1115
434	1456
434	1667
434	2182
434	3550
434	4347
435	899
435	914
435	1059
435	1296
435	1379
435	1601
435	1745
435	2021
435	2244
435	3571
435	3890
435	4221
436	2542
437	3967
437	4563
438	699
438	834
438	2713
438	2808
441	800
441	998
441	1623
441	2047
441	2190
441	3010
441	3023
442	513
442	711
442	789
442	1069
442	1145
442	2267
442	2482
442	2604
442	2871
442	2986
442	4425
442	4774
443	1844
443	3237
443	4648
444	2111
444	2242
444	2317
446	1338
446	1805
446	2681
447	2593
447	3960
447	4990
448	797
449	955
449	966
449	1271
449	1419
449	1687
449	2506
449	3025
449	3335
449	3438
449	3455
449	4471
449	4968
450	536
450	1277
450	2083
451	867
451	2311
451	3683
452	568
452	4199
453	1671
453	1713
454	516
454	533
454	567
454	772
454	840
454	927
454	1346
454	1585
454	3239
454	4465
455	769
456	926
456	1581
456	4596
457	3213
457	3489
457	4107
457	4795
458	3767
458	4371
461	833
461	929
461	1916
461	3518
462	855
462	1116
462	1181
462	1206
462	1363
462	1543
462	1572
462	1807
462	2179
462	2268
462	3193
462	3243
462	3496
462	4718
463	957
463	1104
463	1359
463	2266
463	4032
463	4093
464	692
464	768
464	846
464	1442
464	1586
464	1792
464	1930
464	2370
464	3005
464	3028
464	3569
464	3753
465	3354
465	3720
466	651
466	709
466	760
466	4598
466	4848
467	526
467	636
467	665
467	2487
467	3862
468	2329
468	3718
469	547
469	570
469	603
469	653
469	791
469	910
469	1855
469	1904
469	1982
469	2169
469	2410
469	2619
469	2740
469	3369
469	3526
469	3621
469	3638
469	3968
469	4823
469	4891
470	1786
470	3555
471	2506
472	596
472	798
472	1456
472	3779
473	498
473	1187
474	542
474	845
474	936
474	939
474	1629
474	1803
474	2153
474	2448
474	3332
474	3832
475	852
475	1417
475	4753
476	1614
476	2351
477	1237
477	1537
478	1226
478	1334
478	2441
480	3508
481	629
481	1337
481	1341
481	1772
481	2322
481	4055
481	4686
482	573
483	516
483	961
483	3388
483	3553
483	3691
484	503
484	640
484	655
484	1335
484	2708
484	3784
484	4875
485	546
485	972
485	1270
486	1086
486	1976
486	2537
486	2650
486	3286
487	723
487	1408
487	2072
487	4287
489	689
489	1958
489	2728
490	1644
490	1867
490	2480
492	2272
492	4139
492	4423
494	1331
494	2166
494	4908
495	738
495	1269
495	1359
495	1435
495	1568
495	1830
495	3154
495	3354
495	3704
496	605
496	810
496	875
496	1214
496	1613
496	1973
496	2419
496	2522
496	3001
496	3976
496	3984
496	4152
496	4678
497	557
497	1458
497	1558
497	3021
498	1224
498	1381
498	1708
498	1938
498	2870
498	3153
498	3413
498	4888
499	904
500	3843
500	4533
500	4889
501	577
501	1609
501	2416
501	2988
501	3432
502	1868
502	1908
502	3593
503	1119
503	1549
503	3030
503	3632
503	4179
505	518
505	4751
506	1204
506	1465
506	1489
506	1635
506	2424
506	2555
507	830
507	921
507	1502
507	1942
507	4077
508	1283
508	1325
508	1690
508	1722
508	2933
508	4944
509	1133
509	2176
509	4999
510	612
510	676
511	594
511	1340
511	3381
513	992
513	2015
513	3821
514	1765
515	625
515	982
515	1092
515	1177
515	1707
515	1902
515	2041
516	939
516	1028
516	2459
516	3883
516	4983
517	692
517	1254
517	2580
517	4160
517	4764
518	864
518	1437
518	1980
518	2169
518	3221
518	4477
518	4791
519	710
519	1474
519	1685
519	2588
519	2914
519	4856
520	1034
520	2236
520	4441
520	4767
521	552
521	650
521	736
521	844
521	909
521	1007
521	1008
521	1726
521	1834
521	1885
521	2197
521	2524
521	2586
521	4007
521	4143
521	4550
521	4565
521	4716
522	900
522	4027
522	4447
523	2098
523	3609
523	4710
524	817
524	841
524	1091
524	1324
524	3426
524	4914
525	2658
526	774
526	1372
526	1447
526	2639
526	2946
527	690
527	953
527	2433
527	3987
528	529
528	1253
528	1257
528	1405
528	2233
528	2591
528	4351
529	995
529	4429
531	1581
532	1882
532	2236
533	3065
534	2010
534	2484
534	3568
534	4902
534	4959
534	4998
535	695
535	2691
535	3200
535	3840
535	4859
536	1977
536	3958
537	1269
537	1388
537	2732
537	2911
537	3019
537	3592
537	4874
538	811
538	868
538	948
538	1613
538	1844
538	2016
538	3251
538	3870
538	4386
539	2914
539	4146
539	4727
540	569
540	687
540	1006
540	1008
540	1892
540	2896
540	3033
540	3216
540	3296
540	3337
540	3389
540	3730
541	779
541	827
541	1731
541	2083
541	2953
541	3037
541	3273
541	3586
541	3949
541	4696
543	1152
543	2231
543	2681
543	4222
544	1996
544	2362
544	2640
544	3146
544	3763
544	4290
545	589
545	625
545	800
545	1183
545	1430
545	1740
545	1999
545	2621
545	2968
545	3532
545	3824
545	4489
545	4535
548	930
548	1266
548	1638
548	2759
548	2877
548	4240
549	1132
549	1611
549	1712
549	2136
549	2419
549	3129
549	3492
549	3678
549	4228
549	4741
550	993
550	1491
550	1551
550	1681
550	1956
550	1971
550	2803
550	2941
550	4132
550	4304
550	4706
551	1371
551	1518
551	1746
551	2723
551	4042
552	1517
552	2854
552	3987
552	3988
552	4120
553	556
553	578
553	1147
553	2103
553	2660
553	2843
553	3031
553	3357
554	910
554	2033
555	3280
557	1920
557	2208
557	2596
557	3589
557	4887
558	1983
558	2724
559	662
559	2655
559	3917
560	1250
560	2092
560	2549
560	2559
560	3757
560	4073
560	4348
560	4402
561	599
561	1037
561	1481
561	1935
561	2961
561	4299
561	4580
563	706
563	981
563	2326
564	1429
564	1673
564	2276
564	3495
564	3978
565	1347
566	713
566	1327
566	1574
566	2432
567	2440
567	2727
567	3277
567	4640
568	2353
568	3135
569	672
569	853
569	946
569	973
569	1123
569	1666
569	1717
569	3275
569	4062
569	4978
571	727
571	740
571	922
571	1732
571	3320
571	3347
571	3685
571	4193
572	632
572	656
572	988
572	1068
572	3022
572	3756
572	4037
572	4150
574	1160
574	1676
574	2512
574	4915
576	641
576	2616
577	1707
580	3222
580	3985
581	590
581	611
581	754
581	889
581	1043
581	1384
581	3107
581	3561
581	3952
581	4512
581	4809
582	1747
583	1106
583	1316
583	1411
583	2060
583	2199
583	3548
583	3722
583	4414
583	4417
584	1246
584	3350
584	3580
585	1817
585	2913
586	1075
586	1235
586	1412
586	1761
586	2221
586	2673
586	3664
587	607
587	1035
587	1049
587	1825
587	1857
587	3654
588	1847
588	2278
588	3529
588	3595
589	742
589	1083
589	1310
590	608
590	995
590	3172
590	3595
591	799
591	3694
591	4380
593	736
593	1207
593	1656
593	4354
593	4872
594	1242
594	1711
594	1862
594	2047
595	4069
596	1081
596	1215
596	3281
596	3801
596	4118
597	1020
597	1389
597	1576
597	3566
597	3947
598	884
598	1541
598	1554
599	1510
600	637
600	1032
600	1864
600	2619
600	2627
600	3061
600	3080
600	4137
600	4838
600	4933
601	2460
601	3401
602	728
602	1029
602	3653
602	4065
603	1046
603	2662
603	3614
604	683
604	720
604	1706
604	3772
604	4589
605	2166
606	1399
606	1489
606	3210
607	842
607	1193
607	2172
607	3533
609	691
610	2050
610	2380
610	2572
610	2606
610	3524
611	1207
611	1589
611	1682
611	1690
611	2149
611	2469
611	2776
611	3156
611	3860
611	3886
611	4886
611	4955
611	4980
612	764
612	2024
612	2341
613	708
613	807
613	916
613	1007
613	1143
613	1334
613	1363
613	2095
613	2918
613	3500
613	3554
613	3580
613	4252
613	4698
614	1175
614	1268
614	1467
614	1790
614	2180
614	2541
614	2684
614	2745
614	2851
614	3162
614	3851
614	4296
615	782
615	1178
615	1522
615	2813
615	3444
616	734
616	1604
616	2722
616	3380
616	3819
617	1360
617	2589
617	2600
618	826
618	1517
618	3468
619	1821
619	2275
619	3260
620	1118
621	710
621	858
621	1136
621	2167
621	3144
621	3437
622	1378
622	1642
622	3891
623	771
623	1315
623	2386
623	2967
624	702
624	1102
624	2155
624	2192
624	2821
624	4138
624	4299
625	747
625	1529
626	642
626	1138
626	1503
626	1886
626	2548
626	4255
627	1770
627	3270
627	3677
627	4270
628	4352
628	4410
628	4629
628	4932
629	1049
631	693
631	850
631	999
631	1112
631	1404
631	1411
631	1665
631	1727
631	1956
631	2488
631	2526
631	2702
631	2728
631	3578
631	3681
631	4505
631	4925
633	1141
633	1387
633	3403
633	3689
634	767
634	806
634	915
634	1280
634	2049
635	2713
635	3132
636	1856
636	3014
636	3044
636	3952
636	4908
638	744
638	1156
638	1274
638	2366
638	4216
638	4283
639	989
639	2934
639	4937
640	1596
640	2807
640	3206
640	4977
641	836
641	920
641	4800
642	1393
642	2782
642	4645
643	1633
643	1789
644	1199
644	2382
644	4247
645	1068
645	4281
646	2648
646	2758
646	4967
647	3016
648	840
649	3108
650	1495
650	2285
650	4173
650	4623
651	2997
651	3723
652	835
652	1011
652	1024
652	1071
652	2109
652	4939
654	1354
654	2363
654	2497
654	4897
655	1126
655	1130
655	1540
655	2067
655	2426
656	667
656	1080
656	1436
656	2597
656	2630
656	3375
657	802
657	1391
657	1860
657	3502
658	945
658	1326
658	1343
658	1536
658	2335
658	2650
658	3042
658	4148
658	4534
658	4683
659	1047
659	1234
660	696
660	777
660	892
660	1041
660	1163
660	1384
660	2668
660	2725
660	3825
660	4332
661	1721
661	1950
661	2659
661	2684
661	2910
661	3958
662	822
662	942
662	1104
662	1154
662	1394
662	1486
662	1512
662	2024
662	2228
662	2276
662	2605
662	2762
662	2800
662	2801
662	3394
662	3416
663	864
663	898
663	1521
663	2621
663	2840
664	876
664	1262
664	1709
664	2200
664	2319
664	2730
665	2887
666	4933
667	968
667	1197
667	1909
667	1912
667	3755
668	713
669	1628
669	2902
669	3121
670	2949
671	2222
671	4635
671	4785
672	1137
672	1506
672	3312
673	887
673	1048
673	1173
673	1259
673	1292
673	1478
673	1617
673	1647
673	1679
673	1881
673	1895
673	2213
673	2452
673	2783
673	3346
673	3366
673	4133
673	4343
674	1018
674	1042
674	1894
674	2043
675	748
675	4317
675	4497
676	694
676	1532
676	2312
676	2926
676	2945
677	1400
677	2129
677	3989
677	4652
678	680
678	1180
678	1453
678	1585
678	2224
678	2447
678	2467
678	2644
678	2943
678	3559
678	4102
678	4608
678	4663
679	770
679	913
679	1612
679	1727
679	1779
681	885
681	1037
681	1144
681	1289
681	1663
681	1970
681	2321
681	2373
681	2420
681	2565
681	2601
681	3258
681	3505
681	4194
681	4209
681	4286
682	4110
683	1377
683	2107
683	3347
683	4462
685	2901
686	2168
686	4202
687	1533
687	2519
687	3008
687	3205
688	899
688	2064
688	2676
688	3887
689	2106
689	4446
689	4621
690	1175
692	2285
692	2584
692	2867
693	1748
694	924
694	2227
694	3753
696	777
696	879
696	935
696	4748
697	4385
698	1125
698	2124
698	2750
699	1477
699	1919
699	3228
699	4850
700	2671
700	2915
701	2143
701	3378
701	3606
702	4996
703	897
703	3564
704	1597
704	1606
705	1752
705	1781
705	2013
707	1097
707	1307
707	1971
707	3959
707	4426
708	1214
710	1105
710	1326
710	1367
710	1708
710	2469
710	2836
710	3630
713	1080
713	2072
713	2153
713	2209
713	2479
713	3443
713	4974
714	973
714	1636
714	2794
714	2836
714	4700
715	1692
715	2094
716	2875
716	4012
717	2348
717	2825
717	3754
717	4187
717	4203
718	2772
718	3518
719	2747
719	4214
719	4654
721	751
721	895
721	1052
721	1152
721	1389
721	1628
721	1663
721	1810
721	2357
721	2532
721	2593
721	2646
721	2817
721	2906
721	2963
721	4377
721	4848
722	792
722	1019
722	1637
722	3176
723	3639
724	1146
724	4918
726	866
726	1506
726	2046
726	4223
727	890
727	1202
727	1437
727	1966
727	2028
727	2431
727	3397
727	3982
728	801
728	2084
728	2402
728	2431
728	2478
728	2686
728	2731
728	3422
729	2098
730	1483
730	2007
730	2833
730	3868
730	4510
731	4515
732	3872
732	4601
733	967
733	2162
733	3065
733	4021
733	4841
734	3096
734	3360
734	3382
735	1741
735	1992
735	2617
735	3001
736	3999
736	4916
737	996
737	1387
738	925
738	1388
738	2062
738	2844
738	3454
738	3826
739	1896
739	3488
740	763
740	1495
740	2279
740	3105
740	4616
741	1523
741	1834
741	2979
741	3015
741	3187
741	4449
742	1286
742	3775
743	1062
743	1071
743	1822
743	2259
743	2772
744	2566
744	4559
745	2985
745	4295
746	821
746	982
746	1026
746	2674
746	2986
746	3363
747	2100
747	4868
749	1546
750	1164
750	2800
750	3057
751	2262
752	1017
752	1526
753	1067
754	1020
754	1275
754	1790
754	2378
755	1038
755	2563
755	3310
756	3852
757	1088
757	1733
757	1796
757	1934
757	1984
757	2108
757	4797
758	854
758	896
758	1010
758	1918
758	2586
758	3296
758	3850
758	4030
759	4198
760	1128
760	1160
761	796
761	1064
761	1369
761	1511
761	3050
761	3464
763	1065
763	1766
763	1883
763	2970
764	1967
765	813
765	1922
765	2026
765	3244
765	3308
766	789
766	1646
766	4608
767	2479
767	2648
767	3351
768	928
768	1313
768	2013
768	2834
768	4575
769	3507
770	1484
771	2201
771	3295
771	3487
771	4406
771	4612
772	1357
772	1954
772	2387
772	3685
773	1199
773	1987
773	2247
773	2307
773	2945
774	831
774	855
774	4583
776	1021
776	2296
778	1324
778	1447
779	1213
779	1401
779	2255
779	3045
779	3056
779	3111
779	3292
779	3343
779	4141
779	4210
779	4749
780	1186
780	1305
780	2801
780	3679
781	1385
781	1515
781	2151
781	2623
781	3940
782	1353
782	2294
782	2421
782	4538
784	785
785	1791
785	2044
785	4994
786	904
786	915
786	1050
786	1786
786	2344
786	2405
786	3068
787	1264
787	1650
788	1135
788	1815
788	2587
789	937
789	1933
790	1509
790	1688
790	2517
790	2946
790	3549
790	4095
791	920
791	2210
792	3836
792	3929
792	4291
793	1040
793	3313
794	1072
794	2476
794	2577
794	3456
794	3773
796	820
796	984
796	2331
796	3480
797	1634
797	1648
797	2017
797	2565
797	3178
797	3873
797	4227
797	4235
798	938
798	1144
798	1164
798	1470
798	2257
798	2271
798	2769
798	4003
798	4835
799	815
799	1494
799	2751
799	4728
802	4396
804	928
804	4108
804	4794
805	1635
805	3794
806	1174
806	1319
806	1546
806	1979
806	2061
806	2127
806	2476
806	2596
808	1162
809	1972
810	2043
810	2572
810	2978
810	4496
810	4878
812	853
812	893
812	919
812	1303
813	1769
813	1907
813	2007
813	2286
813	2693
813	3340
813	3581
813	4021
813	4300
814	989
814	1438
815	2331
815	3002
815	4080
815	4869
816	1743
816	2872
816	2900
816	3245
817	1033
817	1466
817	1540
817	2066
817	2214
817	2991
817	4064
817	4347
817	4551
818	1127
818	2056
818	2292
818	2723
818	2766
819	2141
819	2802
819	3204
820	2457
821	4397
822	1260
822	1564
822	1640
822	1840
822	2477
822	2509
822	3805
822	3870
823	3871
823	4696
824	2444
824	3014
825	1336
825	1851
825	4058
825	4246
825	4807
827	1153
827	1221
828	4702
829	3066
829	3521
830	2682
830	3277
830	3461
831	1614
832	2805
832	3318
832	3389
833	1056
833	1119
833	1140
833	1440
833	2472
833	3762
833	3861
833	3917
833	3955
833	4485
833	4764
833	4895
834	894
834	1991
834	3004
834	4305
836	3218
836	4721
837	1504
837	2461
839	1555
839	1665
839	3319
840	1093
840	4534
841	1947
841	2504
841	3684
843	2132
843	2323
843	3037
844	1716
844	4659
846	1415
846	2640
846	3789
847	1192
847	1965
848	1346
848	2227
848	2625
848	2804
848	3274
848	3977
848	4187
848	4275
849	1393
849	1713
849	2143
849	2454
849	2683
849	2710
849	4102
849	4922
850	896
851	972
851	1170
852	954
852	1299
852	1850
852	2337
852	2633
852	2702
852	3025
853	1280
853	1593
853	2297
853	2867
853	2996
853	4188
854	1355
854	3623
855	2994
856	3078
856	4881
857	1239
858	991
858	1118
858	1566
858	1599
858	1648
859	1191
859	2284
859	2399
859	4660
860	1329
860	1916
860	2109
860	2444
860	2629
860	3364
860	4014
860	4697
861	1959
861	3436
861	3547
862	1312
863	1837
863	2393
863	4327
864	2901
865	3787
865	4723
866	908
866	1783
867	2202
867	2558
868	1561
869	1306
869	1449
869	2168
869	3217
869	3519
870	1323
870	1654
870	2091
870	2207
870	2288
870	2308
870	2398
870	2489
870	2499
870	2874
870	3060
870	4586
871	3466
871	3606
871	4563
872	1687
873	949
873	2944
874	1050
874	3074
875	2045
875	2052
875	2501
876	1350
876	1820
876	3434
877	1258
878	1701
879	2226
879	2498
881	1621
881	1744
881	3127
881	3184
881	4476
883	1045
883	1432
883	1534
883	1579
883	1986
883	2014
883	4067
883	4630
883	4793
884	1151
884	1501
884	2862
890	1452
891	1869
891	2976
892	1054
892	1974
892	2652
892	3141
892	3721
892	3911
892	4587
895	943
895	1756
895	2003
895	2237
895	2550
895	2584
895	2729
896	1039
896	2503
896	3876
897	1865
897	4150
899	1553
899	2116
899	3376
900	1337
900	2070
900	2672
900	3834
902	1040
902	2494
902	2549
902	4086
903	1533
903	2413
903	3823
904	2788
905	1686
905	1758
905	1881
905	1912
905	2487
905	2951
905	3290
905	3831
905	4065
905	4313
905	4801
905	4817
906	912
906	1293
906	2101
906	2264
906	4537
906	4756
906	4777
907	958
907	1140
907	1218
907	1333
907	1351
907	1762
907	1798
907	1831
908	2226
909	4497
910	3127
910	4720
910	4951
911	2819
911	3170
911	3322
911	4938
912	1498
912	2256
912	3195
912	3376
913	1079
913	2332
913	2365
913	2952
913	3317
913	3477
914	1586
914	2638
915	1074
916	1265
916	1285
916	2265
916	2608
916	4873
917	1052
918	2232
918	3594
918	3628
918	4451
918	4657
918	4993
919	4152
920	1314
920	2310
920	2465
920	2517
920	2614
920	2733
921	1562
921	2455
921	2849
922	1132
922	1620
922	1989
922	2546
922	2759
923	1096
923	1565
923	1861
923	4573
923	4656
924	1482
925	1658
925	2118
925	2473
925	2475
925	2636
925	3261
925	3767
926	3708
926	4109
927	933
927	1078
927	1728
927	1994
928	992
928	1602
928	2155
928	2296
928	2407
928	2768
928	3313
928	4817
929	977
930	1120
930	1297
930	1725
930	1870
930	3154
930	4319
930	4480
932	1246
932	1817
932	1886
932	2827
932	3129
933	1279
933	2159
933	3268
934	1597
934	1818
934	2537
934	4024
934	4061
935	1420
935	2197
935	4268
935	4711
936	1759
936	2696
936	2888
937	1171
937	1299
937	1557
937	2309
937	2367
937	3497
938	1676
939	1528
939	1637
939	2356
939	4387
939	4404
940	1739
940	1967
940	2805
941	1252
941	2697
942	4094
943	2789
944	4887
945	1407
945	1999
945	2280
947	3301
947	3302
948	1301
948	1861
948	2344
948	3239
949	4318
950	1995
950	2754
950	2856
950	3634
950	4493
953	1026
953	1167
953	3123
954	959
954	1089
954	1929
954	2080
954	2804
954	3798
954	4112
954	4553
955	2974
956	1385
956	4270
957	4649
959	4176
959	4685
960	1249
960	2624
962	2338
962	2575
963	1391
963	2803
964	981
964	1278
964	2391
965	1148
965	3676
965	4053
966	1840
966	4821
967	1194
967	1564
967	2150
967	2546
967	2848
967	4295
968	1309
968	3005
968	3367
968	3551
970	2073
971	1033
971	1358
971	2131
971	2502
971	3413
971	3713
971	3741
971	4581
972	4519
973	1183
973	4277
974	1179
974	2135
974	4178
974	4260
974	4816
975	1458
975	2005
975	2147
976	1448
976	2104
976	2229
976	2704
976	2777
976	3784
977	4359
978	1776
978	3931
978	4329
979	1233
979	1262
979	3935
979	4239
979	4971
981	1198
981	2756
981	4011
981	4243
982	1380
983	1376
983	3983
984	1209
984	3035
985	1185
986	3269
987	3115
988	2386
989	2069
989	3169
989	4605
990	1592
990	2254
990	4712
990	4857
991	1423
991	1784
992	2218
992	4882
993	1123
993	1203
993	1522
993	1860
993	3293
993	3360
993	3644
994	3188
995	1751
995	3445
997	3010
997	3209
998	1652
999	3990
1000	2508
1001	1734
1001	4474
1002	1405
1002	1668
1002	4343
1003	4455
1004	1656
1004	3564
1004	3898
1006	1012
1006	1406
1006	1482
1006	1903
1006	1940
1006	2215
1006	2438
1006	3778
1006	4028
1006	4480
1006	4691
1006	4782
1007	1075
1007	1543
1007	1578
1007	2380
1007	2637
1007	3934
1007	4335
1007	4850
1008	2051
1009	1959
1010	3188
1011	1518
1011	4644
1012	3324
1013	1087
1013	1248
1013	1958
1014	4312
1014	4574
1015	1148
1015	1664
1015	1828
1015	2639
1015	3884
1015	4190
1016	1241
1016	4562
1018	1878
1018	2436
1018	2793
1018	2995
1018	3539
1018	4674
1018	4772
1020	1042
1020	1142
1020	3016
1020	3095
1020	4515
1021	1117
1021	2989
1022	2057
1022	3178
1022	4910
1023	2211
1023	4781
1024	1403
1024	1556
1024	2806
1024	2831
1024	4995
1025	1452
1025	2948
1026	1590
1026	2779
1026	3266
1026	4655
1026	4843
1027	1474
1028	2571
1028	3032
1028	3486
1028	4280
1028	4424
1029	1194
1029	2857
1029	3036
1029	4120
1030	1431
1030	4896
1031	1100
1031	4042
1032	2899
1032	3372
1033	1340
1033	2530
1033	3836
1034	1159
1034	1249
1034	1441
1034	1450
1034	3345
1034	3499
1034	3662
1034	3701
1035	2233
1037	1419
1038	3391
1039	1565
1039	1847
1039	2273
1039	2424
1039	2796
1039	3000
1039	3042
1039	3852
1040	1176
1040	2715
1042	3119
1043	1084
1043	2417
1043	2608
1043	2862
1044	1166
1044	2701
1044	3543
1044	4825
1045	1176
1045	1212
1045	1823
1045	4330
1045	4426
1045	4959
1046	2485
1046	4999
1047	1582
1047	3817
1048	4625
1049	2315
1049	4555
1049	4931
1051	3138
1052	1057
1052	1258
1052	2511
1052	2725
1052	3258
1052	4958
1053	2008
1055	1712
1056	1129
1056	1231
1057	1172
1057	1731
1057	2705
1057	2778
1057	2868
1057	4644
1058	1610
1058	3596
1058	3872
1059	2664
1059	3867
1059	4699
1061	1097
1061	4810
1061	4927
1062	3880
1064	1105
1064	1220
1064	2134
1064	2252
1064	2495
1064	3542
1064	3560
1064	4547
1064	4756
1065	1170
1065	1778
1065	2287
1065	2305
1065	2449
1065	2746
1065	2834
1065	3419
1065	3446
1065	3936
1065	4684
1065	4943
1067	1292
1067	4499
1068	3751
1068	4281
1068	4523
1069	1345
1069	1717
1069	4020
1071	2122
1071	2246
1071	3620
1073	2372
1073	2632
1074	1891
1074	3605
1075	1186
1075	1247
1075	1434
1075	1771
1075	3170
1075	3200
1075	3749
1077	3801
1077	4607
1078	1092
1078	2835
1078	3364
1079	2740
1080	2154
1080	2494
1080	2631
1080	2792
1080	3045
1080	3115
1080	3447
1080	4821
1082	1632
1082	1944
1082	4165
1082	4550
1083	1285
1083	1455
1083	1832
1083	2071
1083	2184
1083	2346
1083	2662
1083	3420
1083	3616
1083	3827
1083	4156
1084	2623
1084	3790
1088	2133
1088	2303
1088	2325
1088	4514
1089	1225
1089	4837
1090	3085
1090	3782
1090	4936
1091	1426
1092	3189
1092	4367
1093	1201
1093	2069
1093	2983
1093	3106
1093	3431
1094	1109
1094	1386
1094	3815
1095	2458
1095	3816
1095	4502
1096	1742
1097	1237
1097	2891
1098	1370
1098	4724
1099	1992
1099	2578
1100	1853
1100	1859
1100	2355
1100	2677
1100	3856
1101	1569
1101	1627
1101	2787
1102	1282
1102	1653
1102	4370
1103	1358
1103	2103
1103	4366
1104	2971
1104	3714
1104	4346
1104	4783
1105	2199
1106	4077
1107	2326
1107	2847
1107	3433
1107	4412
1108	4655
1109	2062
1111	4009
1111	4248
1114	1247
1115	2956
1116	2964
1116	4494
1117	2920
1117	3247
1118	3553
1118	3814
1119	4441
1120	1202
1120	1686
1120	1838
1122	1748
1122	2437
1122	3555
1122	4423
1123	1288
1123	3985
1123	4142
1123	4226
1123	4261
1126	1281
1127	1679
1127	2228
1128	1550
1128	2015
1129	1403
1129	2234
1129	3041
1130	2719
1130	4730
1131	1426
1131	3039
1131	3257
1132	1383
1132	3008
1133	1448
1133	2760
1133	2790
1134	1484
1134	1933
1134	2768
1134	4025
1135	4133
1136	4837
1137	3863
1137	4119
1140	2014
1140	2021
1140	4274
1142	1502
1142	4566
1144	1205
1144	1583
1144	4759
1146	1375
1146	3726
1147	1512
1147	1619
1147	2054
1147	2164
1148	1612
1148	3357
1148	4789
1149	1210
1149	2818
1149	3260
1150	1197
1150	2144
1150	3501
1152	1155
1152	2065
1152	2134
1152	2545
1152	3619
1152	3764
1153	1362
1153	1740
1154	1178
1155	1797
1155	3469
1156	1300
1156	1468
1156	1547
1156	1936
1156	2333
1156	3101
1156	4433
1157	2971
1157	3493
1157	3675
1159	1669
1159	2241
1159	2329
1159	4409
1159	4576
1160	1454
1161	3059
1161	4244
1162	1457
1162	1469
1162	1898
1162	2264
1162	3030
1162	3636
1162	3649
1162	4209
1162	4349
1162	4531
1163	4552
1164	1255
1164	1973
1165	2912
1165	4715
1166	3417
1166	3481
1166	4807
1167	2875
1168	1402
1168	2124
1169	1706
1169	2223
1169	2364
1169	2576
1169	2819
1169	2940
1169	4040
1172	1921
1173	2183
1174	1188
1174	1290
1174	1680
1174	1711
1174	2334
1174	3268
1175	2459
1175	2880
1175	3109
1175	3549
1175	4212
1176	2938
1176	3758
1176	4113
1177	1236
1177	1244
1177	2543
1177	3795
1177	4000
1178	2793
1178	3659
1178	4219
1181	1341
1181	4871
1182	1893
1183	3689
1183	4360
1183	4459
1184	1342
1184	1725
1184	2694
1184	3387
1184	3804
1185	1749
1186	3746
1188	3171
1189	3916
1190	1584
1190	1941
1190	4992
1191	3456
1191	3687
1192	2570
1192	4186
1193	1735
1193	2609
1194	1267
1194	2027
1194	3343
1194	4746
1195	3655
1197	2412
1197	4528
1201	1486
1201	2943
1202	4795
1203	1223
1203	1649
1203	2302
1204	1842
1204	3937
1206	2438
1206	2477
1206	3669
1206	4191
1207	3348
1208	3745
1208	3853
1209	2121
1209	4774
1210	1641
1210	2051
1210	2461
1210	4087
1210	4415
1210	4495
1211	2334
1212	2252
1213	1349
1213	1940
1213	2904
1213	3752
1213	4182
1213	4208
1213	4287
1213	4626
1213	4961
1213	4982
1214	1548
1214	1621
1214	2345
1214	4574
1215	4664
1217	1777
1219	4564
1221	1479
1222	2552
1222	3390
1224	1507
1224	1633
1224	2242
1224	4514
1225	2246
1225	3002
1225	3527
1226	1343
1226	1508
1226	1563
1226	1753
1226	1981
1226	3645
1227	3426
1229	3660
1230	1816
1230	2857
1230	2990
1231	2258
1231	3471
1232	1815
1232	2198
1232	3331
1232	3867
1234	4153
1234	4427
1235	2490
1235	4019
1236	1373
1237	2001
1237	2369
1237	2707
1238	4752
1239	1381
1239	2238
1240	1372
1241	3516
1242	1279
1243	4739
1244	1823
1244	3291
1246	3088
1248	1871
1249	2401
1250	3199
1250	3249
1250	4395
1250	4667
1251	1700
1251	1798
1251	1928
1251	2651
1251	3213
1251	3462
1251	4486
1253	1634
1255	1870
1255	2300
1256	1574
1256	3622
1256	4435
1257	4820
1257	4958
1258	2097
1258	2240
1259	1619
1259	2265
1260	1276
1260	3961
1261	4587
1262	3471
1263	1702
1263	1803
1263	1854
1263	3384
1263	3639
1263	3986
1263	4233
1263	4714
1264	1423
1264	1527
1264	3509
1264	4100
1264	4503
1264	4604
1265	4729
1267	2077
1267	3278
1267	3472
1268	1488
1269	3385
1269	4632
1270	1659
1270	2253
1270	2765
1270	2999
1275	2195
1275	3537
1280	3546
1281	3271
1281	3544
1281	3579
1281	3735
1281	3736
1281	4035
1282	2350
1282	2470
1282	4701
1283	3328
1284	2585
1284	2854
1284	3342
1284	3731
1284	3923
1285	2282
1286	4814
1287	1726
1287	2442
1287	2798
1287	3744
1291	1615
1291	3128
1292	2025
1292	3110
1293	1416
1293	2445
1293	2678
1293	2814
1294	2828
1294	3468
1294	4498
1295	2711
1296	2395
1296	4726
1297	1700
1297	2279
1297	2536
1297	2583
1298	3660
1299	1729
1299	2889
1300	1481
1300	4418
1301	2094
1301	2675
1302	3287
1302	4513
1303	1652
1303	2493
1303	2578
1303	3440
1304	2073
1306	3560
1308	1570
1308	1831
1308	2107
1308	2729
1308	3771
1308	4123
1309	3160
1310	1632
1310	2105
1310	3344
1311	2173
1311	4642
1312	4772
1313	1616
1313	1852
1313	2557
1313	3352
1314	4481
1315	1794
1315	3053
1315	3196
1315	4457
1315	4487
1315	4878
1316	2509
1316	3375
1317	4432
1317	4768
1319	1353
1321	2293
1322	1453
1322	4175
1323	4688
1324	2032
1324	4101
1326	1577
1326	3114
1326	3191
1326	3358
1326	3861
1327	3039
1328	3473
1330	1386
1330	1767
1330	2127
1330	2421
1330	2678
1330	3481
1330	4336
1331	3111
1331	3143
1332	1445
1332	1623
1332	1862
1332	3323
1333	2245
1333	2412
1333	2474
1333	2876
1333	4183
1334	2832
1334	3636
1336	3613
1336	4602
1337	2176
1337	4060
1337	4265
1339	4249
1340	1444
1340	1689
1340	3162
1341	4568
1342	1404
1342	1764
1342	3529
1343	4217
1344	1915
1346	2579
1346	2997
1346	4365
1348	1572
1348	2290
1349	1462
1349	1490
1349	1873
1349	2404
1349	3336
1349	4448
1350	1559
1350	1944
1350	3272
1351	4151
1352	3892
1352	4466
1353	4560
1354	2651
1354	2981
1355	2486
1355	2544
1355	2670
1355	3480
1355	4823
1358	1975
1358	4846
1359	2190
1359	3504
1359	3743
1360	2082
1360	2527
1360	3498
1361	2406
1361	2894
1362	1767
1362	4666
1364	3866
1364	4172
1367	1422
1367	3253
1367	3908
1367	4449
1370	1414
1371	3152
1372	2865
1374	3379
1374	3488
1375	1631
1376	2263
1376	3706
1377	4078
1378	3173
1379	4870
1379	4902
1380	1923
1380	2090
1380	4577
1381	1639
1382	1902
1383	2883
1383	3973
1385	2194
1385	2304
1386	1723
1387	2376
1387	4191
1388	1470
1388	1608
1388	1795
1388	2009
1388	3036
1388	4950
1391	3939
1392	4388
1393	1588
1393	4547
1394	1779
1394	2776
1394	3913
1394	4334
1395	4516
1396	1863
1396	2406
1397	2084
1397	3623
1398	4954
1399	1752
1399	3429
1399	3633
1400	1839
1401	3262
1402	1443
1402	1774
1402	2795
1403	1460
1403	2807
1403	3628
1403	4599
1404	4736
1405	1515
1405	2277
1405	2306
1405	2357
1405	2677
1407	2025
1407	2255
1407	2492
1407	3395
1408	4166
1408	4650
1410	2937
1411	2868
1412	4275
1413	1473
1413	2307
1413	3673
1413	4262
1418	1566
1419	1457
1419	3708
1419	4142
1420	1554
1420	3427
1420	3644
1421	4700
1422	2105
1423	4930
1424	1733
1424	3027
1425	1537
1426	1781
1426	4019
1426	4463
1427	2767
1428	1602
1428	3195
1429	1442
1429	2075
1429	3608
1431	3409
1432	1865
1434	2221
1434	4225
1436	3559
1436	4460
1437	2110
1437	2698
1437	3054
1437	4132
1438	1568
1438	1718
1438	1877
1438	4056
1438	4174
1438	4570
1439	4957
1440	2116
1440	3341
1440	3531
1441	3604
1441	3834
1443	1710
1443	4443
1444	2449
1447	1639
1447	3744
1447	4610
1450	4364
1451	1876
1452	1552
1452	2634
1453	4938
1456	2411
1456	2876
1457	1605
1457	1699
1457	3254
1458	1720
1458	1836
1458	1966
1458	3134
1458	3579
1458	4411
1459	1493
1459	3051
1459	3251
1460	1892
1461	1466
1461	2354
1463	2095
1463	2917
1463	4478
1464	2574
1466	1560
1466	3327
1466	3937
1466	4149
1468	2492
1468	3326
1470	2367
1470	4076
1470	4325
1471	2074
1471	2620
1471	3048
1471	4472
1472	2058
1472	4637
1473	3304
1473	3924
1476	3119
1477	2866
1477	3687
1478	1816
1479	2138
1479	2502
1479	4527
1480	1601
1480	2866
1480	4864
1481	1800
1481	2626
1481	4577
1483	4307
1485	2042
1485	2649
1485	2712
1485	3711
1485	4595
1488	1770
1488	3371
1488	4876
1489	2894
1490	3597
1490	4481
1493	4040
1493	4885
1494	2583
1494	4638
1496	1866
1496	2088
1496	4310
1498	1738
1498	1787
1498	1819
1498	2840
1498	4069
1499	2718
1500	2838
1501	4828
1502	1737
1502	3075
1502	3219
1502	4049
1503	2313
1505	3046
1505	3136
1505	3341
1510	2215
1511	3427
1511	3719
1512	1697
1512	3512
1512	4095
1513	1955
1513	3083
1515	4293
1516	1937
1516	3771
1518	1609
1518	1703
1518	1874
1518	1915
1518	2983
1518	4306
1520	1873
1520	2741
1520	3732
1521	2150
1522	1677
1524	3112
1525	4227
1526	2841
1527	2193
1527	2218
1527	3738
1527	4717
1528	4615
1531	1582
1531	4073
1533	1824
1533	1968
1533	2204
1533	2921
1533	3309
1533	4004
1534	2241
1534	3519
1534	4224
1534	4718
1537	1732
1537	1884
1537	1931
1537	2453
1537	2513
1537	2837
1537	3059
1537	3736
1537	4066
1537	4530
1537	4787
1538	2314
1538	3503
1539	2125
1540	1689
1541	3846
1542	1625
1542	3995
1542	4368
1543	4658
1544	2634
1544	3225
1544	3333
1544	4111
1544	4146
1545	4268
1546	2780
1548	1771
1548	4323
1549	4564
1550	4159
1550	4779
1551	1684
1551	2096
1551	2951
1552	2390
1552	4159
1553	4853
1554	3049
1557	3798
1557	4663
1559	2320
1560	1671
1560	3377
1560	4264
1562	2879
1562	4521
1563	2698
1564	2468
1564	2987
1564	3150
1564	3386
1564	3681
1564	4258
1565	4662
1566	3806
1567	3265
1567	3459
1568	2058
1568	3158
1569	3680
1569	3865
1570	1678
1570	2055
1570	2133
1570	2185
1570	3256
1570	3285
1570	4944
1573	4962
1575	3919
1576	1730
1576	3903
1576	4689
1577	2435
1577	3707
1579	1841
1579	1993
1580	2680
1580	4350
1581	1887
1581	2360
1582	2113
1582	2510
1582	2885
1582	3300
1582	4941
1583	1588
1585	1900
1587	2160
1587	3259
1588	2434
1588	3331
1588	3340
1588	3587
1588	4072
1588	4892
1589	3535
1589	4255
1589	4524
1591	2175
1591	2626
1592	2061
1592	2071
1592	2496
1593	3070
1593	3234
1593	3865
1594	2466
1594	4205
1595	2735
1595	2995
1595	3149
1597	3506
1598	2910
1599	3800
1599	3922
1600	1675
1600	4200
1601	1884
1603	2550
1604	3893
1605	1880
1605	2099
1607	3597
1608	1936
1608	2271
1608	4784
1609	2607
1610	4285
1614	2824
1614	4981
1616	3678
1616	4781
1618	2948
1620	2761
1620	3165
1621	2892
1627	1827
1627	2018
1627	2076
1627	2216
1627	2507
1627	2919
1627	3567
1627	3934
1627	4339
1628	2239
1629	2175
1629	2719
1629	2810
1631	1670
1631	1742
1631	2437
1631	2818
1632	2727
1632	4333
1633	2859
1639	3140
1639	3543
1640	4293
1642	2732
1642	2842
1642	3909
1642	4157
1642	4334
1643	2358
1643	3168
1643	3617
1645	4424
1646	1913
1646	3106
1648	3975
1651	1705
1651	3699
1652	1788
1652	2188
1652	2291
1652	2587
1652	2928
1653	2390
1654	1889
1654	4402
1655	1998
1655	4731
1656	1858
1656	2770
1656	4045
1656	4279
1656	4440
1657	3667
1658	2036
1658	2535
1658	4531
1659	2886
1662	2665
1662	2761
1662	2795
1662	3942
1662	4408
1663	3611
1664	1695
1666	2029
1667	1792
1667	2947
1668	4900
1669	2202
1669	2773
1669	4430
1669	4748
1670	4576
1671	2533
1671	3230
1671	3443
1674	1693
1675	2705
1675	3314
1676	2712
1680	3060
1680	4901
1681	2010
1681	3399
1682	4180
1684	2042
1684	2672
1684	3715
1684	4292
1684	4725
1686	2370
1687	4857
1688	2023
1688	2869
1688	3396
1688	4397
1688	4416
1689	2052
1689	4010
1690	2398
1690	3112
1691	4063
1692	2440
1692	3147
1692	3607
1693	1920
1693	3316
1694	2720
1694	4524
1695	3358
1696	3435
1697	2115
1697	2158
1697	2896
1697	3290
1697	3463
1697	3490
1697	4558
1698	1721
1698	4125
1698	4280
1699	2180
1699	2422
1699	2923
1700	2036
1702	2020
1702	3098
1705	1980
1705	2430
1705	2497
1705	3083
1706	4003
1707	4602
1709	3415
1710	3688
1711	2451
1713	2003
1714	4949
1715	1756
1716	2161
1716	2436
1717	2327
1717	4704
1718	2841
1720	2114
1720	2179
1720	3384
1720	4136
1720	4413
1720	4714
1725	2324
1725	4827
1728	2853
1729	2884
1733	1964
1733	2053
1733	2653
1733	4594
1733	4987
1735	1866
1736	1737
1736	1820
1736	2035
1736	2336
1736	2717
1736	3194
1736	3450
1736	3788
1736	4604
1737	2234
1739	2523
1740	1955
1741	3709
1741	4579
1743	4812
1744	1977
1744	2690
1744	2700
1744	2813
1744	2825
1744	2828
1744	3029
1744	3349
1744	3903
1744	4799
1744	4911
1745	3703
1745	3737
1746	2350
1746	4421
1747	1750
1747	1996
1747	3972
1748	3270
1748	3573
1750	3858
1752	4769
1755	4404
1755	4460
1760	1906
1760	2288
1760	3098
1760	3458
1761	1897
1761	4799
1763	1783
1763	3190
1763	3280
1764	1836
1765	3113
1767	3625
1767	4525
1768	2128
1768	4214
1770	3812
1774	2378
1774	2429
1775	1929
1775	2269
1775	2443
1775	2535
1775	3593
1775	4877
1779	4301
1780	3153
1780	3857
1780	4473
1781	3179
1782	3663
1782	3803
1783	2926
1784	2525
1784	3186
1784	3478
1784	3682
1786	4266
1787	4112
1787	4458
1790	1885
1790	3696
1790	4530
1792	1793
1794	2355
1794	2545
1794	2815
1795	1821
1795	2392
1795	3927
1796	2113
1796	2366
1796	3894
1796	4016
1797	2973
1798	1951
1798	3027
1798	3989
1798	4801
1801	4692
1803	2643
1804	3785
1806	3869
1808	3552
1810	3879
1811	2932
1811	3400
1811	3879
1813	4946
1815	2780
1815	4693
1816	2198
1816	2473
1816	3109
1816	3291
1816	3412
1816	4290
1816	4942
1819	3522
1821	2319
1821	4200
1823	4054
1823	4103
1823	4277
1825	3638
1825	4158
1827	2152
1828	3833
1829	2616
1829	3386
1832	2878
1833	3657
1833	4760
1834	3120
1837	4713
1838	4618
1839	1964
1839	3482
1839	4282
1840	4508
1840	4520
1841	2669
1841	3272
1842	3044
1842	3370
1844	1888
1844	2864
1846	4010
1847	2579
1848	3359
1848	4136
1849	2534
1851	3335
1853	2283
1855	2035
1855	2408
1855	2463
1856	2439
1856	2964
1856	3969
1856	4284
1858	3601
1859	4167
1860	3399
1860	3515
1861	3047
1861	3082
1861	3740
1861	3878
1864	2770
1864	2809
1864	3205
1865	4071
1865	4398
1869	3700
1870	2403
1870	3963
1871	2212
1871	2359
1871	2930
1871	2949
1872	2345
1873	1914
1874	2826
1875	4509
1876	4074
1877	1918
1877	3246
1878	2177
1880	2029
1880	3102
1880	3392
1882	2527
1883	3534
1884	3915
1886	1910
1887	3134
1888	1963
1888	2653
1888	2655
1888	3487
1889	2992
1890	3819
1891	3346
1892	4345
1894	2040
1894	3393
1897	2590
1897	3452
1897	3504
1897	4093
1897	4186
1898	1978
1898	3144
1900	3351
1901	2268
1901	2429
1901	2881
1901	4680
1902	3793
1903	2346
1906	2154
1908	4083
1909	4336
1911	1946
1913	2237
1914	3853
1915	2919
1916	4892
1917	4786
1920	3040
1923	2938
1923	3742
1924	4704
1925	2627
1925	4375
1925	4540
1927	2985
1930	2147
1930	4479
1931	2038
1931	3214
1932	2670
1932	2837
1932	3858
1932	4079
1933	2737
1934	4457
1935	2606
1935	2925
1935	4450
1938	2994
1939	2186
1939	2407
1939	2520
1939	2687
1939	4392
1941	2145
1941	3219
1942	3311
1942	4760
1943	2230
1945	2220
1945	3483
1945	3800
1946	2161
1948	3013
1948	3603
1949	1952
1949	2918
1949	3308
1949	4455
1950	2257
1950	2733
1950	3398
1950	4175
1951	2012
1951	2816
1951	3538
1951	4006
1952	2162
1952	3776
1952	3794
1952	3795
1952	4804
1953	2797
1953	2863
1954	4989
1955	4434
1956	4134
1959	2081
1960	2361
1960	3977
1962	3605
1964	4883
1965	2118
1965	2665
1965	2954
1966	2059
1967	2589
1967	2881
1967	4682
1968	4600
1969	2450
1970	2337
1971	3182
1974	2671
1974	2930
1975	2379
1975	4529
1976	2641
1976	2697
1976	3905
1977	1993
1977	3621
1978	3524
1980	2369
1980	3657
1980	3711
1980	4091
1980	4420
1982	2781
1982	4660
1987	3758
1988	4050
1989	3033
1989	4670
1990	2185
1994	3925
1995	2515
1995	3695
1995	4873
1996	2592
1996	3997
1997	2093
1997	2573
1998	2878
1998	3602
1998	3677
2001	3145
2002	4383
2004	3953
2004	3980
2005	3932
2005	4096
2006	4238
2008	3071
2008	3250
2008	3322
2008	3423
2009	2306
2010	2078
2011	3896
2011	4733
2012	2137
2012	4502
2012	4739
2013	4436
2014	3079
2014	3311
2014	3453
2015	2196
2015	2385
2015	2601
2015	4551
2016	2940
2016	4923
2018	2415
2018	2815
2018	4582
2019	2810
2019	4162
2019	4895
2021	2115
2022	4101
2023	2976
2025	2341
2026	2748
2026	3645
2026	4988
2030	4790
2032	2384
2032	4676
2037	3513
2038	4626
2039	3057
2039	4036
2039	4778
2040	2330
2040	3452
2040	3886
2040	4391
2043	2394
2044	2839
2045	2802
2046	4498
2048	3935
2049	3017
2049	4015
2049	4981
2051	2272
2052	3245
2052	3353
2054	2610
2055	4344
2057	2642
2057	3021
2058	2165
2058	2613
2059	2060
2059	2823
2059	3163
2059	3307
2061	2542
2061	3052
2061	4607
2062	2775
2063	2299
2063	2689
2064	4453
2065	2447
2066	2435
2067	2683
2068	2312
2070	2216
2070	3875
2072	2383
2072	3760
2072	4743
2073	4964
2074	3522
2074	4289
2075	2773
2077	2207
2077	4633
2079	2258
2079	4542
2080	4027
2082	3610
2084	3240
2085	2514
2088	3705
2089	4634
2092	2611
2092	2877
2092	3666
2094	2467
2095	2817
2095	3303
2095	4872
2097	2342
2097	3185
2097	3374
2097	3864
2097	3882
2101	2661
2101	2693
2101	3741
2102	4432
2106	2480
2106	2518
2106	3449
2106	4544
2107	2615
2107	3048
2107	3557
2108	2514
2108	4867
2109	2645
2112	2205
2112	3338
2114	2753
2114	3193
2114	3294
2114	4242
2114	4881
2117	2203
2117	2791
2117	4048
2118	2165
2118	4442
2119	2855
2119	3350
2119	3967
2120	2248
2122	2763
2124	2827
2126	3337
2128	4960
2129	3089
2129	4778
2130	2177
2130	2294
2130	2709
2130	3418
2130	3451
2130	3557
2131	3824
2131	4167
2131	4970
2133	4567
2134	2238
2134	3265
2134	3334
2134	4338
2134	4898
2135	2895
2135	2999
2136	2993
2137	2630
2138	4707
2139	4488
2141	3536
2144	2332
2144	2377
2144	3945
2144	4009
2144	4374
2145	2936
2145	3728
2145	4118
2145	4357
2146	3527
2146	4511
2146	4529
2147	3279
2147	3372
2148	2304
2148	3056
2149	3159
2150	3435
2151	2374
2151	4819
2152	3517
2153	4234
2155	3072
2159	2915
2159	3226
2159	4372
2160	3434
2162	4558
2168	3086
2168	3440
2173	3807
2173	4023
2174	2504
2174	3802
2177	3043
2178	2688
2179	3092
2180	2958
2182	4521
2188	2452
2188	3108
2188	3582
2188	3641
2188	4044
2188	4215
2188	4431
2188	4859
2188	4864
2191	2256
2191	3912
2192	2538
2193	2939
2194	3906
2196	3495
2196	4422
2197	2716
2198	3023
2199	3948
2201	2498
2201	3454
2201	4071
2204	2524
2204	3763
2205	2520
2205	3217
2205	3750
2205	4279
2206	4893
2209	3055
2210	2692
2210	2922
2210	3581
2210	3734
2212	2605
2212	4026
2212	4206
2213	3161
2213	3643
2214	2511
2216	2822
2216	3278
2218	2462
2219	2812
2222	3273
2225	4258
2226	2984
2228	3038
2231	2632
2234	3682
2235	4250
2236	3116
2236	4578
2236	4910
2237	3978
2237	4438
2238	4923
2240	2475
2240	4909
2243	2321
2243	3403
2244	2558
2245	2442
2245	3123
2245	3181
2245	3325
2246	4483
2246	4968
2248	2835
2248	2920
2248	4013
2249	3220
2254	3105
2254	3472
2255	3118
2256	2389
2256	2450
2256	3430
2260	3058
2260	3099
2260	3796
2261	2592
2261	4257
2262	4151
2263	2470
2268	3988
2269	3130
2272	4239
2274	2724
2274	3889
2275	2554
2275	3637
2276	2848
2277	4443
2278	4201
2278	4973
2279	3614
2280	3131
2281	2483
2283	4337
2284	3284
2284	4495
2285	2721
2285	3405
2286	4341
2287	2531
2287	3082
2288	2381
2288	4099
2291	3034
2292	3182
2293	4758
2295	3672
2298	3246
2300	2465
2300	3186
2301	4948
2303	4556
2304	2858
2304	3421
2304	4831
2306	3450
2306	4913
2306	4926
2308	2781
2308	3116
2308	3806
2308	4085
2310	2666
2310	3750
2310	4302
2314	2717
2315	3161
2315	3282
2315	4698
2318	2582
2319	2618
2319	3855
2319	4557
2319	4595
2320	3849
2321	2618
2323	2582
2324	3300
2325	2567
2327	2858
2327	3586
2327	4768
2330	4584
2330	4849
2331	4171
2332	3141
2332	4788
2333	4211
2336	3095
2337	3661
2338	3140
2338	4173
2339	4870
2340	3069
2340	3505
2342	3174
2344	3330
2344	4482
2347	2491
2347	2556
2348	3269
2348	4598
2351	2799
2352	3742
2353	3633
2355	3609
2355	3893
2356	2771
2356	2779
2356	3946
2357	3447
2357	3914
2358	4236
2360	2845
2360	2873
2360	4522
2360	4770
2360	4954
2361	2699
2361	4982
2362	3716
2363	2374
2363	3100
2363	4316
2364	2872
2364	3774
2367	3545
2367	4967
2369	3412
2369	4092
2371	2432
2371	4906
2376	4055
2376	4253
2376	4803
2378	3720
2380	3650
2381	2831
2381	3012
2381	3275
2381	3969
2381	4034
2382	4322
2385	3991
2386	3137
2386	3289
2386	3391
2388	2674
2388	3665
2389	2766
2389	3225
2394	2581
2394	3818
2396	3009
2398	2430
2398	4067
2399	2715
2399	3355
2399	4743
2400	2540
2402	2762
2403	4155
2405	2784
2406	4355
2413	2423
2413	3397
2414	2699
2415	2425
2418	2602
2419	3073
2419	3361
2420	3618
2421	2654
2422	3625
2422	3965
2422	4627
2424	4754
2425	3769
2427	3635
2429	3575
2429	4054
2430	3931
2431	4124
2433	4002
2434	3197
2435	3839
2437	4406
2438	3420
2439	3168
2439	3507
2442	4782
2443	3575
2443	3635
2444	3301
2444	3643
2444	4802
2445	2557
2446	2489
2447	3243
2447	4605
2449	2924
2449	3748
2452	2704
2455	4400
2456	2666
2456	4840
2457	2752
2457	4126
2457	4709
2458	2687
2458	4414
2458	4661
2460	2738
2460	4234
2461	4427
2462	4624
2462	4625
2464	3401
2464	4865
2464	4916
2466	4478
2467	2649
2473	2691
2474	4413
2475	4230
2476	2641
2477	3608
2477	3702
2477	3859
2478	3307
2478	3845
2481	2891
2481	3271
2481	4137
2481	4356
2481	4920
2482	3299
2482	3506
2482	4652
2483	3076
2484	4364
2485	2769
2485	4945
2486	2594
2486	3006
2489	4703
2491	4230
2491	4744
2491	4775
2495	3445
2496	2742
2496	4766
2497	4276
2497	4852
2499	4386
2499	4822
2500	3729
2501	3871
2501	4827
2502	3812
2502	4012
2502	4806
2505	3964
2506	3329
2506	3666
2506	3900
2506	4090
2506	4853
2508	3298
2508	3437
2508	4016
2508	4603
2510	3266
2510	3994
2511	2833
2512	4166
2513	2955
2513	3053
2513	3566
2515	2880
2516	2744
2516	3877
2521	2754
2521	3822
2521	4398
2523	3970
2525	4195
2525	4213
2526	2580
2526	3576
2526	4470
2528	2564
2528	3085
2528	3267
2528	3596
2533	2908
2534	2539
2534	3956
2535	2806
2535	2956
2535	3018
2535	4473
2535	4738
2539	2576
2540	3404
2545	3210
2545	4437
2552	2965
2553	3221
2553	3556
2553	4638
2554	2675
2554	3202
2554	3448
2554	3703
2554	4163
2557	3072
2557	4320
2558	4385
2559	4771
2561	4367
2562	3019
2562	3255
2562	3679
2562	4975
2563	3459
2563	3898
2563	4439
2563	4682
2567	3387
2567	4018
2567	4029
2568	2597
2568	2787
2568	4415
2570	4017
2571	4757
2573	4446
2573	4641
2576	3404
2576	4312
2578	4361
2579	3752
2580	2660
2580	4749
2581	2863
2581	3588
2586	2925
2586	3535
2586	4561
2587	2884
2587	4489
2590	4075
2591	3910
2592	4975
2593	3926
2594	4394
2594	4465
2595	3113
2595	4177
2597	3734
2601	4866
2606	2735
2606	3944
2607	3651
2609	4888
2609	4921
2610	2962
2610	3292
2610	4196
2612	3810
2613	2667
2613	3786
2615	3842
2617	3100
2618	3547
2618	4500
2620	4247
2621	2928
2622	2927
2622	4008
2623	4879
2624	2747
2624	3887
2625	2883
2625	3467
2626	4860
2630	3070
2630	3821
2632	3148
2632	3698
2632	3790
2632	3950
2632	4047
2632	4510
2632	4947
2636	4924
2637	2646
2641	3591
2641	4691
2643	3646
2644	4257
2645	3873
2646	3484
2647	2950
2647	4074
2655	3848
2657	3693
2657	4880
2658	3365
2660	2874
2661	3238
2662	3309
2662	3394
2663	2873
2663	4593
2666	4875
2670	2714
2671	4001
2672	3813
2673	3184
2673	4389
2674	3274
2675	3155
2675	4199
2676	2890
2676	3279
2677	3409
2678	4491
2683	3232
2684	2757
2685	4503
2686	3198
2687	3078
2687	4791
2689	2744
2689	3282
2689	4317
2690	3847
2692	2750
2692	3094
2692	3263
2692	3650
2692	4926
2696	3071
2696	3696
2699	4456
2700	3063
2700	4591
2701	3770
2702	4029
2705	3236
2705	4803
2706	3234
2708	3653
2713	2899
2715	3683
2715	4189
2717	3235
2717	4544
2719	2917
2719	3226
2719	3680
2720	3732
2726	3103
2726	3599
2727	4486
2728	4539
2729	2993
2732	3004
2734	4991
2736	4673
2740	4987
2743	4977
2744	2760
2744	3631
2745	4134
2745	4886
2746	3690
2746	4037
2749	3582
2749	4221
2750	3552
2751	3318
2753	4161
2754	3417
2757	3828
2764	3101
2767	3820
2767	4387
2768	3570
2768	4710
2773	3532
2774	2788
2776	4192
2777	3825
2778	4784
2779	3494
2780	3975
2780	4549
2783	4399
2785	2871
2785	2965
2786	4863
2789	4264
2789	4715
2793	4990
2794	3908
2797	4379
2800	4924
2801	3799
2801	4618
2803	3276
2803	3733
2804	3253
2805	3591
2806	3191
2808	4033
2808	4921
2809	3497
2809	3642
2809	3833
2809	3913
2811	2846
2811	3018
2813	3267
2816	4357
2818	4181
2818	4690
2820	3305
2821	3013
2821	3339
2821	4506
2822	3442
2826	3145
2827	4212
2828	3577
2837	4006
2837	4829
2842	4004
2842	4686
2842	4978
2843	3212
2843	4976
2844	3624
2844	4762
2848	3747
2854	3230
2854	4272
2856	2980
2856	3288
2859	4378
2865	4575
2866	3577
2866	4569
2867	3598
2868	3419
2868	4236
2871	4787
2874	3022
2874	3073
2874	3957
2879	3102
2879	4382
2880	3146
2880	4911
2881	4294
2882	3672
2882	3850
2882	4260
2882	4754
2890	3510
2891	4374
2893	4936
2894	3369
2894	3531
2894	4170
2896	4001
2903	3084
2905	4779
2908	3241
2908	4308
2909	3511
2913	4634
2917	3632
2918	3383
2918	3713
2920	3361
2920	3405
2920	3706
2922	4571
2926	4707
2927	3612
2929	4198
2929	4249
2929	4381
2939	4015
2948	3285
2951	3328
2955	4556
2956	3694
2956	4053
2959	4207
2959	4617
2959	4679
2960	4251
2961	3353
2961	4793
2964	4725
2965	3143
2965	4241
2965	4744
2967	3442
2967	3688
2969	3533
2971	4259
2972	3835
2974	4474
2975	3785
2975	4468
2975	4947
2976	3122
2979	3749
2981	4333
2981	4729
2982	3899
2983	4127
2984	2998
2985	3207
2985	3773
2988	3451
2990	3439
2991	3222
2991	3264
2991	3366
2992	3385
2992	3723
2995	3712
2996	4129
2996	4131
2998	3166
2998	4005
3001	3040
3001	4545
3003	4131
3003	4377
3003	4914
3007	3743
3009	3087
3009	3142
3009	3788
3009	3822
3013	3327
3013	3927
3014	4469
3017	4145
3017	4808
3018	4614
3022	3460
3023	4062
3024	3974
3027	4815
3028	3769
3029	4818
3034	4046
3036	4940
3038	3766
3039	3731
3042	3317
3043	3490
3043	4082
3048	4168
3051	3118
3052	4737
3054	3175
3055	3544
3056	4182
3057	4263
3069	4822
3070	3097
3071	3748
3071	4464
3083	3796
3084	4361
3085	3167
3085	3551
3092	4836
3093	4997
3095	4789
3096	4373
3097	3584
3102	3652
3104	3986
3105	3206
3105	3319
3105	3508
3105	3651
3105	4203
3105	4611
3108	3429
3108	3546
3111	4308
3116	3915
3119	4026
3119	4379
3122	4543
3124	3297
3124	3971
3124	4340
3130	3847
3131	4523
3133	3315
3136	4350
3141	3592
3141	3916
3143	3473
3143	4536
3143	4903
3144	4360
3148	3378
3149	3425
3150	3875
3153	3530
3153	4366
3153	4422
3154	3199
3154	4122
3157	3823
3157	3888
3159	3896
3168	3820
3170	3345
3171	3179
3178	3528
3183	3190
3184	4603
3185	3884
3185	4156
3187	3520
3190	3739
3191	3355
3192	4059
3196	4766
3196	4785
3199	3862
3199	4695
3200	3899
3214	3626
3218	3900
3219	4932
3223	4751
3225	4507
3226	3421
3226	3627
3228	3940
3232	3600
3235	4088
3235	4805
3237	4653
3238	3470
3246	4951
3247	3615
3250	3980
3252	3962
3255	3661
3256	4089
3258	4208
3258	4535
3261	3499
3264	4032
3265	3612
3267	3483
3267	3805
3269	4600
3271	3745
3271	4320
3274	3523
3276	3498
3280	4338
3283	4331
3291	3849
3293	4861
3297	4416
3299	4043
3303	3465
3307	3943
3310	3772
3313	4335
3315	4763
3316	3583
3320	4651
3322	4119
3325	3973
3325	4809
3326	4433
3335	3624
3336	3489
3336	4890
3340	4311
3348	3648
3348	4527
3350	3611
3351	3966
3357	4841
3358	3791
3361	3428
3361	3979
3362	4428
3363	3673
3363	3962
3367	3780
3367	3797
3374	4162
3376	4382
3377	4796
3380	4430
3383	4880
3384	4485
3386	4930
3388	4742
3397	4225
3397	4505
3401	4738
3406	4215
3407	4732
3408	3829
3409	4702
3411	4640
3416	4695
3420	4269
3422	3491
3422	4832
3423	3965
3425	3974
3425	4263
3426	3576
3428	4526
3432	3781
3436	4755
3438	4251
3443	4157
3445	3501
3449	4490
3456	4740
3462	4390
3466	4139
3466	4735
3467	4613
3469	4536
3470	3712
3470	4805
3472	3993
3473	3667
3473	4466
3473	4980
3475	3539
3482	4631
3482	4798
3489	3761
3490	4124
3491	4616
3493	3668
3500	4411
3500	4966
3505	4627
3507	4323
3509	3845
3514	4742
3515	3765
3515	4513
3517	3814
3517	4130
3521	3724
3527	3600
3527	4359
3529	3674
3529	3885
3529	4711
3532	3777
3533	4097
3534	4284
3535	4025
3540	4919
3540	4985
3543	4606
3547	3675
3548	4552
3555	4646
3557	4750
3566	3802
3566	4518
3568	4428
3571	4560
3571	4661
3573	4401
3574	4438
3575	4687
3576	3690
3582	3947
3584	4622
3588	4719
3590	4328
3595	3659
3595	4994
3603	4306
3604	3997
3613	4178
3618	4571
3618	4727
3623	4192
3626	3695
3626	4216
3627	3926
3627	4745
3631	4845
3632	4086
3634	4002
3638	4321
3638	4620
3643	4941
3647	4044
3648	4935
3649	4164
3649	4667
3656	4800
3663	3840
3673	3922
3674	4687
3675	4183
3680	4839
3681	4058
3687	3848
3687	4642
3687	4839
3700	4501
3702	4904
3704	4145
3707	4835
3710	4922
3713	4592
3714	4418
3717	3955
3718	4518
3720	4965
3721	4590
3723	4794
3729	3768
3732	4813
3736	4171
3746	4720
3751	4572
3751	4810
3752	4147
3753	4164
3760	3809
3767	4362
3768	4925
3771	4651
3777	4390
3777	4838
3778	4248
3787	4226
3790	4425
3792	4099
3793	3990
3793	4637
3798	4231
3799	3804
3799	4437
3802	4070
3805	4121
3809	4889
3818	4313
3819	4354
3828	4568
3831	3907
3836	3854
3836	4549
3837	4622
3839	4693
3844	4288
3849	4393
3850	4369
3851	3895
3851	4410
3852	3946
3853	4144
3857	4106
3859	4540
3879	4685
3879	4813
3880	4098
3881	4989
3884	4664
3884	4952
3890	4305
3898	4324
3899	4339
3900	4370
3901	4243
3904	4090
3904	4612
3905	4928
3910	4650
3914	4623
3920	4501
3921	4135
3921	4543
3925	4193
3932	4589
3933	4985
3943	4833
3957	4699
3968	4168
3975	4092
3975	4668
3976	4572
3982	4824
3984	4163
3995	4677
3997	4076
3998	4679
4002	4023
4002	4396
4002	4606
4007	4931
4010	4344
4012	4610
4019	4205
4020	4229
4020	4369
4026	4561
4029	4326
4029	4484
4029	4597
4031	4237
4033	4701
4040	4573
4046	4703
4048	4953
4049	4231
4054	4373
4059	4619
4061	4970
4062	4675
4063	4315
4067	4153
4068	4454
4075	4345
4080	4355
4082	4348
4082	4582
4084	4728
4090	4337
4091	4555
4100	4953
4101	4899
4109	4143
4119	4854
4120	4399
4125	4267
4128	4548
4149	4488
4152	4371
4157	4723
4158	4189
4160	4692
4168	4885
4169	4578
4182	4912
4191	4341
4192	4206
4192	4811
4193	4770
4194	4204
4200	4244
4201	4609
4207	4630
4211	4254
4214	4310
4218	4391
4223	4417
4230	4419
4232	4792
4246	4262
4247	4969
4259	4314
4265	4767
4272	4771
4277	4452
4283	4328
4284	4820
4304	4453
4309	4517
4325	4759
4326	4866
4329	4681
4336	4811
4340	4740
4358	4855
4363	4974
4367	4963
4370	4786
4372	4860
4379	4647
4383	4475
4391	4403
4404	4765
4414	4934
4433	4844
4440	4851
4461	4761
4488	4490
4515	4628
4540	4894
4542	4676
4549	4904
4560	4918
4563	4705
4581	4815
4605	4713
4609	4722
4614	4915
4631	4956
4636	4834
4666	4671
4670	4960
4685	4818
4687	4847
4696	4833
4708	4753
4727	4851
4744	4995
4749	4858
4772	4792
4788	4804
4795	4912
4802	4884
4803	4894
4899	4909
4916	4993
4927	4937
4941	4956
