0	125
0	369
0	395
0	2543
0	2563
0	2755
0	2924
0	2990
0	3516
0	4100
0	4349
0	4496
1	12
1	231
1	2176
1	2181
1	2984
1	3142
1	3310
1	3704
1	4712
1	4810
2	968
2	1449
2	1902
2	3074
2	3079
2	3219
2	3697
2	3814
2	4407
2	4477
3	72
3	342
3	1985
3	2169
3	2606
3	2746
3	2818
3	3201
3	3318
3	3577
3	4372
4	721
4	761
4	857
4	1081
4	1116
4	2191
4	2276
4	3365
4	3804
4	4216
4	4917
5	1766
5	1830
5	2088
5	3147
5	3189
5	3217
5	4584
5	4752
5	4790
5	4794
6	617
6	1273
6	1755
6	2800
6	2990
6	4927
6	4952
7	420
7	1477
7	1764
7	2754
8	27
8	76
8	245
8	1251
8	1613
8	1980
8	2452
8	2493
8	2653
8	3015
8	3125
8	3265
8	3580
8	3700
8	3925
8	4448
8	4577
8	4948
9	526
9	661
9	862
9	1463
9	1883
9	1978
9	2926
9	2930
9	2941
9	4186
9	4341
9	4842
10	1122
10	1805
10	2676
10	3354
11	32
11	688
11	813
11	1335
11	1558
11	2147
11	2770
11	3116
11	3550
11	3786
12	1081
12	1208
12	1459
12	1716
12	3191
12	4155
12	4676
13	720
13	1214
13	1726
13	1924
13	2298
13	2302
13	2765
13	3142
13	4415
14	207
14	257
14	369
14	421
14	1213
14	2327
14	2498
14	3112
14	3147
14	4739
14	4792
14	4984
14	4996
15	177
15	581
15	2200
15	3133
15	3239
15	3609
15	4037
15	4185
15	4483
15	4660
15	4781
16	72
16	117
16	263
16	581
16	795
16	2046
16	4205
16	4507
17	361
17	380
17	1252
17	2384
17	3001
17	3923
17	4113
17	4584
17	4727
17	4945
18	223
18	391
18	402
18	638
18	1022
18	1189
18	1800
18	3358
18	3458
18	3734
18	4357
18	4441
19	78
19	566
19	1591
19	2254
19	2925
19	3071
19	3103
19	3176
20	344
20	612
20	650
20	1006
20	1392
20	2317
20	2431
20	2791
20	3842
20	3918
20	4623
20	4803
21	1636
21	2449
21	2457
21	4195
21	4306
21	4657
21	4692
21	4867
22	203
22	940
22	2885
22	3067
22	3456
22	3633
22	4011
22	4765
23	392
23	989
23	1002
23	1399
23	1594
23	3301
23	3454
23	3795
23	3880
24	812
24	1597
24	2189
24	2396
24	2777
25	126
25	2903
25	4570
25	4629
25	4777
25	4951
26	1689
26	2937
26	3251
26	3361
26	3660
26	3747
26	3827
26	4996
27	295
27	1082
27	1948
27	2623
27	3510
27	3728
27	3869
27	3884
27	4558
27	4961
27	4984
28	266
28	330
28	532
28	637
28	1192
28	1299
28	1777
28	2038
28	3268
28	3455
28	3611
28	4079
28	4331
28	4640
28	4650
28	4686
28	4789
29	595
29	656
29	1150
29	1562
29	2007
29	2038
29	3333
29	3947
29	4293
30	254
30	1178
30	1956
30	2692
30	2925
30	3336
30	3581
30	4224
30	4378
30	4571
31	341
31	731
31	2624
31	2839
31	2882
31	2966
31	3630
31	3667
31	4615
31	4933
32	709
32	2020
32	2499
32	2831
32	2838
32	2882
32	3457
32	3617
32	4013
32	4552
33	75
33	667
33	1237
33	1991
33	2965
33	3803
33	4652
33	4763
33	4895
34	2278
34	2708
34	2990
34	3542
34	3763
34	3847
34	3951
34	4214
34	4465
34	4783
35	254
35	651
35	773
35	910
35	1364
35	1646
35	2853
35	3949
35	4010
35	4156
36	941
36	1010
36	2183
36	2257
36	4182
37	608
37	709
37	1967
37	2125
37	3997
37	4397
38	158
38	281
38	429
38	2343
38	2467
38	3200
38	4271
39	318
39	607
39	1182
39	1249
39	1593
39	1993
39	2270
39	2695
39	4642
39	4885
40	1100
40	1788
40	2624
40	2961
40	3352
40	3709
40	4126
41	4844
41	4933
42	2670
42	3224
42	3307
42	3755
42	4035
42	4295
42	4484
42	4552
42	4654
42	4760
42	4980
43	492
43	774
43	1322
43	1644
43	2069
43	2262
43	3596
43	4145
43	4251
43	4364
43	4674
43	4940
44	176
44	405
44	658
44	1109
44	1573
44	2375
44	2481
44	3353
44	3546
44	4180
44	4323
44	4408
44	4504
45	1093
45	1500
45	1522
45	2876
45	3432
45	3462
45	4146
46	157
46	522
46	886
46	1257
46	1700
46	2062
46	2801
46	3556
46	3649
46	3848
47	659
47	1724
47	1745
47	4149
48	553
48	575
48	807
48	2475
48	3800
48	3904
48	4073
48	4239
48	4738
48	4809
49	120
49	545
49	747
49	1071
49	1122
49	1537
49	1833
49	1967
49	2410
49	2702
49	3249
49	3447
49	3569
49	4117
49	4639
50	90
50	482
50	488
50	1418
50	1423
50	2470
50	4401
50	4554
50	4956
51	632
51	1326
51	1974
51	2130
51	2679
51	2694
51	3000
51	3316
51	3654
51	3847
51	3912
51	4510
51	4559
51	4603
52	96
52	121
52	218
52	2162
52	3072
52	3188
52	3866
52	3916
52	4882
52	4930
52	4991
53	170
53	322
53	538
53	578
53	677
53	1275
53	2348
53	3475
53	3530
53	3739
53	3931
53	4894
54	240
54	501
54	910
54	1009
54	1804
54	2341
54	2392
54	2498
54	3572
54	3584
54	4280
54	4413
55	292
55	1133
55	1787
55	2204
55	2438
55	3011
55	3035
55	3115
55	3335
55	3885
55	3984
55	4957
56	208
56	602
56	604
56	837
56	1535
56	1669
56	2205
56	2260
56	2423
56	2652
56	3565
56	4169
57	187
57	613
57	794
57	982
57	997
57	2823
57	3096
57	3124
57	3842
57	4037
57	4131
57	4392
58	2109
58	2355
58	2524
58	2871
58	3039
58	3364
58	3611
58	4053
58	4644
58	4835
59	644
59	1395
59	1972
59	2157
59	2529
59	3155
59	4107
59	4740
60	289
60	842
60	1776
60	2346
60	2377
60	2968
60	3123
60	3432
60	3448
60	3800
60	4629
60	4694
61	1595
61	2222
61	2330
61	2332
61	2383
61	2731
61	2844
61	3392
61	3987
62	307
62	837
62	1352
62	2422
62	2477
62	2767
62	3279
62	3618
62	3659
62	4291
62	4705
62	4839
63	217
63	263
63	948
63	1098
63	2369
63	2613
63	2732
63	2902
63	3437
63	3542
63	3841
63	4043
63	4863
64	2195
64	2291
64	2293
64	3267
64	3747
64	4175
64	4310
64	4327
64	4374
65	84
65	133
65	232
65	363
65	399
65	494
65	1049
65	1950
65	2973
65	3019
65	3114
65	3405
65	3544
65	4386
65	4605
66	77
66	411
66	1008
66	1638
66	1695
66	1773
66	1878
66	2186
66	2344
66	2937
66	3508
66	4590
66	4789
67	685
67	1015
67	1695
67	1832
67	2017
67	2323
67	2392
68	808
68	1313
68	1914
68	2843
68	3127
68	3320
68	3813
68	3923
68	4718
69	436
69	527
69	755
69	1086
69	1184
69	2834
69	3130
69	3183
69	3210
69	4217
69	4719
69	4754
69	4823
69	4969
70	74
70	155
70	783
70	840
70	986
70	1172
70	1379
70	1827
70	1958
70	2440
70	2812
70	2816
70	2870
70	3218
70	3700
70	4447
70	4892
70	4926
71	588
71	663
71	879
71	886
71	1168
71	1344
71	1664
71	1771
71	1885
71	1890
71	1923
71	1981
71	2006
71	2412
71	2602
71	2657
71	2680
71	3142
71	3683
71	4141
71	4159
71	4613
72	306
72	490
72	688
72	1251
72	1302
72	2086
72	2112
72	2248
72	2406
72	2631
72	2960
72	3786
72	4389
72	4638
73	1520
73	1557
73	1569
73	1733
73	1965
73	4087
74	1156
74	2138
74	3898
74	4613
75	1980
75	2043
75	2322
75	2642
75	2759
75	2926
75	3362
75	3777
76	768
76	943
76	1262
76	2108
76	2606
76	2829
76	2895
76	3083
76	3242
76	4212
76	4422
76	4895
77	675
77	1032
77	2276
77	2386
77	2942
77	2958
77	3003
77	3315
77	3432
77	3518
77	3764
77	4832
78	379
78	382
78	483
78	1066
78	1642
78	2428
78	2809
78	4018
78	4725
79	1804
79	2094
79	2556
79	3283
79	3745
79	3810
79	4229
79	4291
79	4654
80	283
80	315
80	832
80	1694
80	2120
80	2315
80	2428
80	2672
80	2801
80	3966
80	3997
80	4925
80	4944
80	4978
81	591
81	633
81	2264
81	2400
81	4016
81	4462
81	4657
82	121
82	480
82	607
82	1759
82	1765
82	1978
82	2016
82	2188
82	2214
82	3007
82	3152
82	3272
82	3582
82	3770
82	4144
82	4901
82	4935
83	396
83	1642
83	1647
83	2025
83	2831
83	2993
83	3027
83	4874
84	192
84	443
84	772
84	1445
84	1949
84	2711
84	3771
84	4573
85	106
85	254
85	465
85	867
85	1440
85	1742
85	2216
85	3015
85	3654
85	4093
86	367
86	652
86	851
86	959
86	1385
86	1887
86	2365
86	2539
86	3049
86	3172
86	3284
86	4210
86	4941
87	243
87	716
87	1112
87	1600
87	1938
87	2632
87	4563
88	651
88	1161
88	2195
88	3924
89	1138
89	2573
89	2599
89	3337
89	3374
89	3664
89	3770
89	4524
89	4933
90	600
90	1010
90	1226
90	2152
90	2605
90	2943
90	4226
91	820
91	1823
91	1904
91	2134
91	2465
91	3529
91	3720
91	4553
92	580
92	628
92	903
92	1195
92	1576
92	1600
92	1952
92	2580
92	2663
93	140
93	210
93	263
93	1167
93	1921
93	2221
93	2681
93	3245
93	4167
94	632
94	960
94	1059
94	1248
94	1777
94	1950
94	2024
94	2956
94	4545
95	123
95	129
95	3434
95	3805
95	3881
95	4644
95	4670
96	255
96	1146
96	1194
96	1556
96	2014
96	2855
96	2900
96	3521
96	3575
96	3670
96	3897
96	4215
97	100
97	781
97	2479
97	4180
98	1261
98	1305
98	1400
98	1940
98	3093
98	3164
98	3564
98	3917
98	4110
98	4713
98	4835
99	318
99	454
99	590
99	654
99	711
99	719
99	910
99	1864
99	2210
99	2892
99	3547
99	4583
100	950
100	1426
100	1670
100	1697
100	1765
100	3126
100	3175
100	4715
101	114
101	168
101	670
101	672
101	723
101	734
101	1078
101	2251
101	2462
101	2993
101	3364
101	4024
101	4388
101	4543
101	4597
102	856
102	1905
102	2252
102	3144
102	3669
102	3994
102	4174
103	143
103	363
103	1418
103	1721
103	2138
103	2343
103	2545
103	2925
103	3252
103	4333
103	4552
104	369
104	830
104	1517
104	1904
104	2883
104	3461
104	4574
104	4710
105	134
105	259
105	1041
105	2848
105	2939
105	3575
105	3583
105	4357
105	4592
105	4929
105	4964
106	344
106	485
106	951
106	1472
106	2324
106	2682
106	2736
106	2989
106	3502
106	4475
106	4918
106	4981
107	533
107	736
107	1946
107	2062
107	2274
107	2411
107	2556
107	2804
107	3024
107	3449
107	3466
107	3727
107	3829
107	4126
107	4390
107	4600
107	4725
108	239
108	610
108	1071
108	1234
108	1251
108	2375
108	4248
109	954
109	1659
109	2557
109	2687
109	2758
109	3095
109	3275
109	3792
109	3977
109	4239
109	4398
110	846
110	917
110	1023
110	1060
110	1162
110	3657
110	3660
110	4238
111	262
111	431
111	779
111	1616
111	2103
111	3167
111	4175
111	4360
111	4811
112	127
112	552
112	690
112	903
112	1007
112	1020
112	1132
112	1545
112	2542
112	3380
112	4750
113	335
113	801
113	1294
113	1335
113	1694
113	2174
113	2730
113	2736
113	3887
113	4055
113	4777
113	4813
114	1778
114	3587
114	4657
115	379
115	496
115	545
115	583
115	775
115	2105
115	2887
115	3065
115	3273
115	3418
115	3769
115	3848
115	3955
115	4510
115	4829
116	224
116	312
116	533
116	1448
116	1557
116	1599
116	2152
116	2225
116	2342
116	3202
116	3493
116	3719
116	4345
116	4840
117	1581
117	2012
117	2220
117	2695
117	3192
117	4335
117	4397
117	4738
117	4768
117	4907
118	432
118	1224
118	1632
118	1641
118	1919
118	2188
118	2215
118	2321
118	2562
118	3596
118	4510
118	4608
119	664
119	948
119	1439
119	1464
119	1536
119	1717
119	1800
119	1838
119	2396
119	2697
119	3963
119	4017
119	4392
119	4563
119	4794
119	4911
119	4961
120	145
120	337
120	429
120	1233
120	1276
120	2007
120	2038
120	2440
120	3158
120	3867
120	4084
120	4440
121	220
121	287
121	551
121	844
121	1078
121	1083
121	1179
121	2302
121	2467
121	2542
121	2828
121	4313
122	173
122	548
122	904
122	1219
122	1453
122	1921
122	2074
122	2248
122	2526
122	2622
122	2731
122	3192
122	4308
122	4903
123	634
123	687
123	889
123	1246
123	3529
123	3659
123	3863
123	4448
123	4764
124	209
124	820
124	1389
124	1585
124	3646
125	796
125	947
125	1808
125	1974
125	2027
125	2130
125	2927
125	2944
125	3651
125	4736
126	145
126	369
126	539
126	1249
126	1505
126	2283
126	2747
126	4505
126	4641
126	4875
127	573
127	1022
127	1510
127	1721
127	2189
127	2373
127	2521
127	2630
127	2676
127	2977
127	3706
127	3990
127	4870
128	441
128	731
128	1659
128	3469
129	1120
129	1778
129	2510
129	3869
129	4659
130	460
130	656
130	2199
130	2425
130	4090
130	4268
130	4640
130	4811
130	4821
131	370
131	780
131	1473
131	1558
131	2195
131	2657
131	2821
131	3280
131	3724
131	3796
131	4386
131	4642
132	247
132	569
132	2190
132	2964
132	3521
132	4393
132	4981
133	717
133	1607
133	1929
133	2087
133	2384
133	3063
133	3145
133	4141
133	4528
133	4761
134	586
134	662
134	799
134	2489
134	3225
134	3816
134	4331
134	4461
134	4788
135	966
135	999
135	1369
135	2312
135	4266
135	4332
136	1060
136	1885
136	2353
136	3249
136	3262
136	3915
136	4643
136	4654
137	1592
137	1786
137	2384
137	2791
137	2993
137	3662
137	4140
137	4367
137	4524
137	4933
138	1115
138	1409
138	1415
138	1828
138	1901
138	2510
138	2749
138	2915
138	2941
138	3280
138	4354
138	4676
139	141
139	853
139	1111
139	2147
139	2253
139	3277
139	3492
139	4155
139	4379
140	1147
140	1356
140	1466
140	1910
140	2671
140	2695
140	2768
140	2835
140	2886
140	4688
141	1048
141	1425
141	2930
141	3381
141	3973
141	4934
142	1354
142	1400
142	1782
142	2262
142	2463
142	2513
142	3413
142	3827
142	4098
143	975
143	1180
143	1192
143	2501
143	2738
143	3193
143	3297
143	3359
143	4115
143	4319
143	4494
143	4504
143	4684
143	4744
143	4746
143	4834
143	4932
144	563
144	964
144	2349
144	2554
144	2762
144	2839
144	3634
144	3694
144	4437
144	4727
145	2661
145	2779
145	3465
145	3513
146	249
146	488
146	1204
146	1280
146	2282
146	2394
146	3513
146	3613
146	4163
146	4259
146	4451
146	4957
147	1146
147	1461
147	1553
147	2496
147	2542
147	4405
147	4408
147	4508
147	4889
148	453
148	1329
148	2131
148	2673
148	3577
148	3823
148	3838
148	4343
148	4380
148	4512
149	974
149	1066
149	1932
149	2129
149	2423
149	3507
150	463
150	1033
150	2387
150	2821
150	2957
151	495
151	1023
151	1057
151	1394
151	1481
151	1486
151	1887
151	2808
151	3076
151	3451
151	3492
151	3904
151	4566
151	4848
152	588
152	795
152	813
152	984
152	1261
152	1286
152	1697
152	1714
152	3168
152	4260
152	4282
152	4728
152	4946
152	4965
153	728
153	1009
153	1237
153	1243
153	1502
153	1788
153	1902
153	2563
153	3176
153	4548
153	4871
154	172
154	1383
154	1540
154	2078
154	3047
154	3407
154	3578
154	3608
155	1350
155	1600
155	1673
155	2490
155	3298
155	3574
155	3685
155	4118
155	4334
155	4412
155	4728
156	764
156	1948
156	2279
156	2367
156	2415
156	2448
156	2558
156	2832
156	3847
156	4157
156	4506
157	519
157	521
157	681
157	1346
157	2192
157	2597
157	2748
157	3772
157	4269
158	195
158	374
158	1227
158	1288
158	1680
158	2950
158	3042
158	3172
158	3827
158	4316
158	4579
159	1168
159	1223
159	2295
159	2563
159	2717
159	3382
159	4053
159	4370
159	4736
160	1674
160	2804
160	3093
160	3190
160	4307
160	4770
161	862
161	896
161	992
161	1011
161	1216
161	1360
161	1776
161	1966
161	2124
161	3317
161	3330
161	3440
161	4857
162	1121
162	1518
162	1780
162	2033
162	3313
162	4173
162	4369
163	353
163	1277
163	2482
163	2947
163	3523
164	741
164	1220
164	1781
164	2208
164	3095
164	4031
164	4065
164	4143
165	546
165	3585
165	4058
166	398
166	1375
166	1540
166	2189
166	3176
166	3609
166	3820
166	3952
166	4152
166	4225
166	4623
166	4698
167	453
167	838
167	1084
167	1649
167	1667
167	1841
167	2213
167	2365
167	2853
167	3276
167	3876
168	1952
168	2215
168	2541
168	2768
168	4188
168	4243
168	4312
168	4381
169	506
169	801
169	826
169	1184
169	2162
169	2381
169	2809
169	3196
169	3372
169	3568
169	3859
169	4488
170	187
170	1335
170	1563
170	1649
170	1659
170	3254
170	3258
170	3428
170	3923
170	4212
170	4415
170	4706
170	4994
171	202
171	939
171	1158
171	1766
171	2248
171	2706
171	3332
171	3374
171	4320
172	1823
172	2059
172	2491
172	3158
172	3829
172	3941
172	4163
173	506
173	861
173	1175
173	1867
173	2599
173	2644
173	2727
173	3224
174	1138
174	2414
174	3487
174	3544
174	4032
174	4253
175	376
175	777
175	1310
175	1358
175	1889
175	2684
175	3055
175	3224
175	4722
176	294
176	510
176	774
176	1035
176	1723
176	1769
176	1919
176	1992
176	3015
176	3509
176	4310
176	4794
176	4881
177	548
177	673
177	797
177	1498
177	2979
177	3551
177	3963
177	4497
178	189
178	658
178	1209
178	1584
178	2094
178	2464
178	2879
178	2900
178	3598
178	4298
178	4782
179	256
179	358
179	423
179	1013
179	2751
179	2919
179	2966
179	3569
179	4278
179	4888
180	962
180	3078
180	3568
181	230
181	671
181	751
181	829
181	1515
181	2273
181	2808
181	2960
181	3419
181	3711
181	3721
181	4182
181	4270
182	231
182	317
182	467
182	479
182	971
182	1249
182	2274
182	3165
182	4139
182	4202
182	4300
182	4423
182	4856
183	1269
183	2034
183	2061
183	2322
183	2425
183	2499
183	3432
183	4547
183	4664
183	4826
183	4909
184	1986
184	2344
184	2625
184	2968
184	3045
184	3287
184	3393
184	3900
184	4633
185	393
185	441
185	708
185	1115
185	1165
185	2046
185	3866
185	4113
185	4764
186	278
186	493
186	992
186	2333
186	2346
186	2872
186	3307
186	3685
186	4393
187	972
187	2684
187	2720
187	3211
187	3387
187	3496
187	3568
187	3792
187	4093
188	210
188	424
188	747
188	1287
188	2126
188	2218
188	2790
188	2982
188	3165
188	3256
188	3589
188	3993
188	4047
188	4433
188	4651
188	4804
189	516
189	1369
189	1555
189	4016
189	4109
190	704
190	826
190	1270
190	1542
190	1683
190	3236
190	4003
190	4147
190	4170
190	4296
190	4931
191	393
191	1465
191	1546
191	1664
191	3398
191	3454
191	4659
192	240
192	533
192	1492
192	1936
192	1959
192	1968
192	2455
192	2586
192	2595
192	2899
192	3123
192	3611
192	4696
193	1177
193	1238
193	1644
193	1965
193	2589
193	3178
193	4476
193	4710
194	510
194	991
194	2071
194	2084
194	2515
194	3114
194	3366
194	3546
194	4277
195	624
195	2506
195	3641
196	238
196	988
196	1422
196	1683
196	3000
196	3956
196	4306
197	671
197	960
197	2664
197	2685
197	2975
197	3454
197	4250
197	4947
198	359
198	856
198	900
198	1325
198	2069
198	3071
198	3198
198	3199
198	3326
198	3367
198	3484
198	4196
199	573
199	976
199	2508
199	3188
199	4112
200	556
200	669
200	1038
200	1248
200	1357
200	1890
200	2780
201	283
201	583
201	633
201	960
201	1100
201	1484
201	1572
201	2607
201	2979
201	3134
201	3393
201	3507
201	4685
201	4733
201	4873
202	869
202	1989
202	3041
202	3161
202	3365
202	3690
202	3959
202	4336
202	4898
202	4939
203	229
203	385
203	1388
203	1570
203	2835
203	2943
203	3071
203	3346
203	3830
203	4059
204	1568
204	2177
204	2456
204	2530
204	3303
204	3324
204	3686
204	4416
205	916
205	1504
205	2324
205	3737
205	4033
205	4077
205	4312
205	4698
205	4872
206	269
206	437
206	1308
206	2348
206	2944
206	3419
206	4190
206	4462
206	4769
207	512
207	874
207	1117
207	1298
207	2785
207	3017
207	3146
207	3334
207	3583
207	3589
207	3665
208	520
208	776
208	808
208	2114
208	2632
208	3311
208	3312
208	4357
208	4660
209	771
209	934
209	1355
209	1513
209	1874
209	1915
209	2320
209	2514
209	3388
209	4644
209	4692
210	1619
210	2281
210	2558
210	2828
210	3070
210	3224
210	3402
210	3855
210	3968
210	4171
210	4786
211	811
211	1028
211	1096
211	1613
211	2529
211	2810
211	3172
211	4261
212	779
212	1220
212	1787
212	2709
212	3144
212	3164
212	3327
212	3821
212	4216
212	4566
212	4750
212	4779
212	4902
213	216
213	248
213	303
213	463
213	1999
213	2719
213	3123
213	3424
213	3439
213	3592
213	4376
213	4584
214	333
214	889
214	937
214	938
214	1089
214	1294
214	1363
214	1696
214	1708
214	2310
214	2428
214	2646
214	2763
214	2900
214	4431
214	4800
215	221
215	1016
215	1177
215	1807
215	1982
215	2216
215	2263
215	2993
215	3529
215	4015
216	264
216	306
216	727
216	1688
216	3489
216	4159
216	4270
216	4281
216	4303
217	669
217	3535
217	3558
217	3709
218	259
218	726
218	795
218	1403
218	2827
218	3238
218	3360
218	3529
218	4271
218	4494
218	4642
218	4893
219	403
219	1548
219	1644
219	1861
219	2030
219	2362
219	2748
219	3675
219	4301
219	4957
220	444
220	554
220	759
220	1590
221	2280
221	2675
221	2861
221	3463
221	3791
221	4313
221	4354
222	354
222	589
222	1536
222	2942
222	3563
222	3888
222	4363
223	251
223	782
223	959
223	970
223	2263
223	2705
223	3337
223	3491
223	3926
223	4034
223	4592
223	4819
224	279
224	1749
224	2580
224	2677
224	2773
224	3366
224	4007
224	4699
224	4926
225	328
225	1547
225	2225
225	2347
225	2497
225	2622
225	3177
225	3271
225	3771
225	3966
225	4461
226	723
226	1211
226	1599
226	1775
226	2772
226	2861
226	3298
226	3387
226	3499
226	4369
226	4382
227	371
227	841
227	1784
227	1820
227	2384
227	4757
228	517
228	593
228	2059
228	2251
228	2368
228	2658
228	3069
228	3190
228	3877
228	4050
228	4565
228	4722
229	2287
229	2481
229	2673
229	2999
229	3741
229	4672
229	4771
230	1046
230	1109
230	1198
230	2685
230	2768
230	2938
230	3197
230	3715
230	3801
230	3961
230	4576
230	4732
231	802
231	2194
231	2275
231	2657
231	2757
231	3010
231	3431
231	3792
231	3999
231	4301
231	4372
231	4737
231	4741
231	4826
231	4985
232	928
232	1845
232	2890
232	3021
232	3421
232	3934
232	3935
232	4388
232	4401
233	668
233	4409
233	4603
234	306
234	725
234	907
234	1901
234	2155
234	2466
234	2566
234	3539
234	3659
234	3668
234	3926
234	4038
234	4349
234	4605
234	4968
235	623
235	794
235	1137
235	1838
235	1901
235	1998
235	2152
235	2602
235	2935
235	3260
236	1872
236	3265
236	3939
236	4569
236	4687
237	357
237	744
237	760
237	1281
237	2736
237	2930
237	3038
237	3369
237	3792
237	4959
238	1479
238	1526
238	1632
238	1932
238	1979
238	2145
238	2697
238	2966
238	3452
238	3671
238	3797
238	3869
238	3920
238	4064
238	4635
238	4995
239	348
239	1532
239	1557
239	2227
239	2932
239	3220
239	3315
239	4733
239	4936
240	367
240	692
240	878
240	897
240	1375
240	1764
240	1940
240	2136
240	2240
240	2498
240	2625
240	3264
240	4094
240	4649
240	4888
241	400
241	498
241	684
241	1292
241	2862
241	3038
241	3045
241	3860
242	308
242	450
242	504
242	584
242	1339
242	1729
242	3731
242	4201
242	4920
243	289
243	493
243	1770
243	2311
243	2649
243	2853
243	3070
243	3516
243	3554
243	3591
243	3745
243	4416
243	4807
244	589
244	1071
244	1967
244	4609
245	1398
245	1512
245	1650
245	3687
245	3691
245	4269
246	1197
246	1271
246	1449
246	1626
246	2458
246	2728
246	2752
246	2893
246	3171
246	3234
246	4422
246	4813
247	1014
247	1170
247	1573
247	2080
247	2522
247	3430
247	3526
247	3961
247	4544
247	4748
248	712
248	715
248	946
248	1287
248	2401
248	3872
248	4039
248	4398
248	4476
249	302
249	423
249	474
249	1188
249	1406
249	4659
249	4745
250	301
250	998
250	1855
250	2160
250	2198
250	2251
250	2485
250	2543
250	3342
250	3804
250	4064
250	4291
251	1301
251	2078
251	2226
251	2923
251	3207
251	3868
251	4246
251	4597
251	4648
251	4892
252	292
252	661
252	934
252	1722
252	2666
252	3227
252	3338
252	4632
252	4977
253	285
253	497
253	862
253	949
253	1287
253	1417
253	1481
253	1898
253	2682
253	3163
253	3760
253	4875
254	651
254	1911
254	1974
254	2119
254	2390
254	2480
254	3212
254	3917
254	3963
254	4662
255	733
255	980
255	1455
255	2045
255	2702
255	3584
255	3748
255	4546
256	991
256	1108
256	1610
256	1990
256	2202
256	2241
256	2539
256	3132
256	3479
256	3912
256	4389
256	4558
256	4570
257	459
257	2067
257	2308
257	3581
257	4059
257	4460
258	274
258	1056
258	1827
258	1855
258	3407
258	4343
258	4600
258	4775
259	785
259	2088
259	2762
259	3967
259	4206
259	4929
259	4960
260	577
260	1008
260	1104
260	1167
260	1656
260	2016
260	3563
260	4108
260	4463
260	4886
260	4914
261	1134
261	1687
261	2543
261	3130
261	4623
261	4771
262	783
262	1151
262	2203
262	2305
262	2497
262	2532
262	2976
262	4572
262	4926
262	4995
263	454
263	713
263	767
263	822
263	1242
263	2443
263	2925
263	4291
263	4504
263	4558
263	4899
264	364
264	2143
264	3573
264	4449
264	4452
264	4556
264	4716
264	4873
265	1101
265	1217
265	1345
265	1583
265	2642
265	2775
265	3421
265	3564
265	3716
265	4052
265	4476
265	4929
266	790
266	1060
266	1489
266	1690
266	1717
266	1872
266	2915
266	3064
266	4150
266	4386
267	716
267	824
267	932
267	2489
267	2520
267	2747
267	2784
267	4303
267	4872
268	653
268	1282
268	1539
268	1579
268	2549
268	2620
268	3916
268	3982
268	4818
269	304
269	2171
269	2513
269	2672
269	2910
270	416
270	477
270	533
270	573
270	690
270	1151
270	1609
270	3047
270	3513
270	3905
270	4040
271	1073
271	1166
271	2325
271	3121
271	3174
271	3420
271	3701
271	3744
271	4072
271	4423
271	4731
272	327
272	532
272	704
272	979
272	1104
272	1107
272	3936
272	4172
272	4576
273	555
273	663
273	1525
273	1539
273	2298
273	2609
273	3557
273	3566
273	3686
273	4286
273	4712
274	1681
274	2919
275	278
275	322
275	476
275	1020
275	1412
275	2103
275	2813
275	3069
275	4042
275	4123
275	4223
276	1058
276	1562
276	3728
276	4263
276	4279
276	4522
277	636
277	746
277	843
277	1778
277	1839
277	2735
277	3260
277	3386
277	3629
277	4244
277	4558
277	4649
277	4936
278	642
278	2750
278	2866
278	3035
278	3891
278	4474
278	4923
279	738
279	771
279	1449
279	1537
279	1664
279	3056
279	3418
279	3670
279	3812
280	956
280	1603
280	1905
280	1907
280	2469
280	2510
280	2672
280	4029
280	4113
280	4550
280	4702
281	652
281	943
281	1174
281	2618
281	4974
282	1921
282	2278
282	2469
282	2697
282	4026
282	4134
282	4948
283	1199
283	1315
283	1458
283	1832
283	2792
283	2895
283	3056
283	3430
283	3572
283	3882
283	4319
283	4942
284	433
284	1002
284	1022
284	1743
284	1803
284	1980
284	4090
284	4684
285	1519
285	1847
285	1965
285	3188
285	3803
285	4427
285	4826
285	4833
285	4918
286	370
286	837
286	1902
286	2191
286	2875
286	4226
286	4369
287	1072
287	1824
287	2089
287	3394
288	1727
288	1746
288	1767
288	3996
288	4368
289	512
289	1082
289	1965
289	2028
289	2167
289	3469
289	3598
289	3824
290	725
290	890
290	1448
290	3324
290	4117
290	4630
290	4675
291	465
291	679
291	1532
291	2467
291	3573
291	4127
291	4148
291	4574
291	4647
291	4971
292	962
292	1147
292	2093
292	2236
292	2361
292	2539
292	3937
292	4048
292	4052
293	447
293	620
293	787
293	1001
293	1754
293	2962
293	3368
293	3829
293	4077
293	4236
293	4343
293	4717
293	4728
294	668
294	1360
294	2096
294	2143
294	2156
294	2591
294	3023
294	3984
294	4704
295	1848
295	2688
295	2699
295	3442
295	3551
295	3651
295	4667
296	899
296	950
296	1276
296	2329
296	2572
296	3814
296	4023
296	4372
296	4589
297	544
297	706
297	1823
297	1979
297	2199
297	4508
298	507
298	652
298	1392
298	2068
298	2840
298	2967
298	4556
299	737
299	772
299	1335
299	1496
299	2112
299	2544
299	3029
299	3928
299	3996
299	4301
299	4620
300	377
300	464
300	505
300	1680
300	2100
300	3109
300	3359
300	3688
300	4646
300	4799
301	357
301	1291
301	1311
301	1324
301	1701
301	2331
301	2410
301	4579
301	4593
301	4983
302	1073
302	1707
302	1927
302	2039
302	2229
302	2543
302	2782
302	2793
302	3847
302	3875
302	4027
302	4211
302	4562
302	4931
303	1261
303	1431
303	1894
303	3017
303	3230
303	3320
303	3918
303	4638
304	504
304	837
304	2425
304	2858
304	2862
304	3569
305	625
305	1075
305	1291
305	1693
305	2634
305	3750
305	3911
305	3981
305	4159
305	4345
305	4798
305	4887
306	495
306	811
306	853
306	1321
306	1396
306	1462
306	1680
306	3179
306	3189
306	3485
306	4768
306	4831
307	1018
307	1229
307	1560
307	1849
307	3372
307	4068
307	4309
307	4550
307	4665
308	499
308	874
308	988
308	1233
308	1843
308	2211
308	2560
308	2932
308	3710
308	4450
309	433
309	1002
309	2155
309	2633
309	2845
309	2942
309	3146
309	3596
309	4022
309	4517
309	4673
310	454
310	565
310	714
310	798
310	2127
310	2656
310	2672
310	3069
310	3955
310	4827
311	864
311	1417
311	1617
311	1640
311	2616
311	2738
311	2743
311	3458
311	4025
311	4329
311	4594
311	4619
311	4902
312	467
312	476
312	1146
312	1229
312	1831
312	1905
312	2018
312	2506
312	2781
312	4502
312	4516
312	4750
312	4842
313	725
313	1559
313	1609
313	1971
313	2205
313	2758
313	4313
313	4522
314	632
314	781
314	940
314	1458
314	1664
314	1861
314	2455
314	2695
314	2754
314	4160
314	4268
315	592
315	2087
315	2221
315	2507
315	2790
315	3198
315	3404
315	3522
315	3887
315	4517
316	2959
316	2965
316	2974
316	3227
316	3776
316	3897
317	557
317	975
317	1945
317	2114
317	3073
317	3540
317	3740
317	4599
317	4879
317	4986
318	1246
318	1685
318	1970
318	2345
318	2540
318	2746
318	2873
318	4081
318	4564
319	385
319	742
319	750
319	798
319	1000
319	1065
319	1985
319	2455
319	3977
319	4517
320	343
320	719
320	819
320	1729
320	1803
320	2344
320	2749
320	2883
320	3094
320	3304
320	3487
320	4008
320	4349
320	4450
320	4642
321	749
321	2019
321	2931
321	3056
321	3467
321	3919
321	4447
322	342
322	1028
322	1389
322	2022
322	4630
322	4717
323	358
323	961
323	1599
323	2016
323	2391
323	3990
323	4107
324	2070
324	2483
324	3165
324	3946
324	4178
324	4210
324	4981
325	568
325	936
325	1078
325	1351
325	2136
325	2557
325	2954
325	3357
325	4364
325	4832
326	342
326	512
326	1417
326	1475
326	1916
326	2009
326	2549
326	2653
326	2721
326	2736
326	4024
326	4914
327	380
327	721
327	1116
327	1192
327	1523
327	1698
327	1892
327	2032
327	2638
327	3120
327	3134
327	4006
327	4593
327	4637
328	1153
328	2573
328	3539
328	4246
328	4395
328	4563
328	4775
329	592
329	991
329	1871
329	2063
329	2695
329	3342
329	4144
329	4148
329	4482
329	4744
330	553
330	658
330	1088
330	1339
330	1542
330	1619
330	1654
330	2421
330	2487
330	3764
330	4162
330	4885
331	363
331	623
331	1579
331	1721
331	1853
331	1867
331	2692
331	2966
331	3134
331	3443
331	3628
331	4231
331	4458
331	4606
331	4743
332	877
332	1073
332	1525
332	2662
332	3565
332	4621
332	4681
333	340
333	785
333	1632
333	2309
333	2384
333	2660
333	2831
333	3766
333	3945
333	4670
334	470
334	511
334	1458
334	1515
334	2665
334	3116
334	3281
334	3698
334	3712
334	4548
335	1109
335	1626
335	1734
335	1928
335	2219
335	3204
335	3964
335	4331
336	530
336	566
336	593
336	752
336	756
336	1288
336	1459
336	1693
336	1721
336	2983
336	4430
337	2355
337	2502
337	2908
337	3176
337	3760
337	3907
337	4099
337	4263
337	4952
338	1952
338	2214
338	3141
338	3627
339	820
339	1871
339	1960
339	2675
339	2872
339	3008
339	3507
339	3540
339	4067
340	345
340	979
340	1069
340	1095
340	1856
340	1948
340	2257
340	2880
340	4130
340	4368
340	4905
341	1065
341	1237
341	2223
341	2406
341	2541
341	2850
341	3075
341	3996
341	4503
342	1069
342	1272
342	1635
342	2014
342	2127
342	3017
342	3572
342	3602
342	3655
342	4263
342	4408
342	4466
343	685
343	1263
343	1652
343	3134
343	3751
343	4766
343	4910
344	365
344	1168
344	1485
344	2140
344	2261
344	2521
344	2537
344	3301
344	3934
344	4454
345	1477
345	1850
345	2407
345	2847
345	3703
345	4216
345	4616
345	4901
346	422
346	906
346	1075
346	1430
346	2077
346	2103
346	2590
346	2618
346	3011
346	3294
346	3391
346	3683
346	4107
346	4606
346	4733
347	999
347	4265
347	4275
347	4299
347	4322
348	950
348	1044
348	1066
348	1397
348	2025
348	2046
348	2113
348	3297
348	3610
348	3632
348	3648
348	3650
348	4364
348	4588
349	565
349	1311
349	1368
349	1885
349	2638
349	2713
349	3172
349	3881
349	4776
349	4887
350	1031
350	1117
350	1283
350	2947
350	3461
350	3511
350	3520
350	4450
351	586
351	1552
351	2110
351	2165
351	2785
351	3057
351	3450
351	4280
351	4768
352	1875
352	2005
352	2174
352	2533
352	2935
352	3027
352	3052
352	3426
352	4119
352	4894
353	1686
353	2894
353	4065
353	4131
353	4228
353	4938
354	639
354	1823
354	2347
354	2397
354	2509
354	3288
354	4060
354	4291
355	422
355	460
355	521
355	780
355	1397
355	1424
355	1492
355	2003
355	2506
355	2507
355	2543
355	2700
355	3297
355	3824
355	3920
355	4070
356	1613
356	1810
356	2114
356	3062
356	3227
356	3601
356	4356
356	4803
356	4990
357	1570
357	1646
357	2347
357	2398
357	2772
357	3407
357	4195
357	4989
358	430
358	664
358	859
358	1365
358	2593
358	3448
358	3598
358	3614
358	3788
358	4345
359	568
359	657
359	834
359	942
359	1337
359	2056
359	2514
359	2542
359	2799
359	3102
359	3899
359	4256
359	4414
359	4511
360	581
360	603
360	1348
360	1545
360	1897
360	1988
360	2322
360	2419
360	2465
360	2497
360	2731
360	2800
360	4223
360	4507
360	4585
360	4635
360	4820
361	476
361	954
361	1268
361	1375
361	3269
361	4540
362	495
362	567
362	588
362	711
362	967
362	1763
362	2685
362	3337
362	3601
362	4437
362	4509
362	4873
362	4941
363	886
363	983
363	1024
363	2030
363	2061
363	3633
363	3662
363	3994
364	520
364	2303
364	2735
364	2737
364	3360
364	4293
364	4694
364	4696
365	377
365	718
365	1016
365	2500
365	3350
365	4856
366	1799
366	1899
366	2762
366	3298
366	3338
366	3360
366	3771
366	4264
366	4352
366	4469
367	1598
367	2079
367	3305
367	4325
367	4373
367	4585
368	551
368	994
368	2333
368	2650
368	3005
368	4350
369	781
369	806
369	1636
369	2820
369	3391
369	3894
369	3957
369	4083
369	4224
369	4570
370	434
370	818
370	2151
370	2368
370	2814
370	4217
370	4283
370	4559
370	4899
371	597
371	1032
371	2706
371	4009
371	4182
371	4456
372	654
372	1656
372	1791
372	2008
372	2664
372	2778
372	3142
372	3919
372	3990
372	4431
373	782
373	1076
373	1710
373	2166
373	2413
373	2593
373	3534
373	3568
373	4187
373	4345
373	4527
374	827
374	1271
374	1354
374	2014
374	2570
374	2574
374	3288
374	3593
374	3603
374	4003
374	4194
374	4378
374	4590
375	400
375	735
375	837
375	899
375	1309
375	1509
375	2274
375	2911
375	4311
376	2150
376	2390
376	3408
376	3856
376	4297
376	4377
376	4415
376	4602
377	455
377	2634
377	2974
377	3461
377	3586
377	3727
377	4480
377	4939
377	4956
378	1852
378	2081
378	3093
378	3149
378	3179
378	3712
378	4940
378	4989
379	415
379	628
379	1902
379	2692
379	2719
379	3103
379	3183
379	3457
379	3479
379	4300
380	391
380	600
380	723
380	1555
380	1634
380	2768
380	2802
380	3303
380	3412
380	3674
380	3969
381	1166
381	1766
381	1908
381	3373
381	4527
381	4609
382	607
382	958
382	1475
382	1852
382	3195
382	3752
382	3997
383	619
383	1174
383	1254
383	2119
383	2868
383	3115
383	3386
383	3425
383	3959
383	4267
383	4452
383	4685
384	1726
384	1909
384	3604
384	3800
384	3853
385	2062
385	2455
385	2735
385	4323
386	1587
386	2194
386	2210
386	2364
386	3029
386	3494
386	3982
386	4183
386	4311
386	4588
386	4932
387	565
387	1185
387	2179
387	2269
387	2343
387	2416
387	3076
388	734
388	881
388	1372
388	1379
388	1538
388	1678
388	1774
388	2411
388	2937
388	3995
388	4095
389	680
389	984
389	1361
389	1498
389	2492
389	2632
389	3540
389	3807
390	2548
390	2621
390	3066
390	3663
391	520
391	640
391	1764
391	2223
391	2542
391	3302
391	3418
391	4096
391	4648
392	1072
392	2150
392	2184
392	2764
392	3147
392	3241
392	3723
392	3772
392	3913
393	1144
393	2202
393	2550
393	2622
393	3010
393	3410
393	4028
393	4321
394	2179
394	2262
394	2711
394	3217
394	3244
394	3717
394	4730
395	435
395	1058
395	1080
395	1410
395	2426
395	2717
395	3011
395	3508
396	426
396	1952
396	1954
396	3300
396	3532
396	3807
396	3966
396	4116
396	4159
396	4375
396	4603
396	4964
397	917
397	1365
397	2422
397	2534
397	3523
397	3800
397	4319
397	4611
398	971
398	2174
398	2528
398	2892
398	3359
398	3496
399	1540
399	3057
399	4745
400	417
400	2005
400	2166
400	3500
400	3577
400	3735
401	1329
401	1454
401	2529
401	3226
401	3600
401	3888
401	4569
402	539
402	868
402	1712
402	1802
402	2152
402	4092
402	4628
402	4991
403	971
403	1179
403	1368
403	1434
403	1839
403	2106
403	2432
403	2463
403	2829
403	4145
403	4190
403	4809
404	1309
404	1531
404	1974
404	2115
404	3413
404	3485
404	4398
404	4650
405	1142
405	1385
405	1610
405	1837
405	2164
405	3491
405	3783
405	4126
405	4188
405	4618
406	871
406	986
406	1456
406	1880
406	1924
406	2457
406	2789
406	3680
407	486
407	613
407	767
407	830
407	1425
407	2021
407	3005
407	3767
407	3769
407	3819
407	3953
408	927
408	1272
408	1398
408	3000
408	3294
408	4346
408	4789
408	4800
408	4857
409	718
409	1054
409	1275
409	1481
409	1643
409	2211
409	2368
409	3137
409	4666
409	4789
409	4829
410	1115
410	1967
410	1970
410	2068
410	2170
410	2525
410	3671
410	4082
410	4261
410	4414
410	4456
410	4470
410	4679
410	4736
411	556
411	1306
411	1369
411	1487
411	1770
411	2032
411	2255
411	2778
411	3541
411	3820
411	4219
411	4424
411	4622
411	4785
412	650
412	996
412	1919
412	2973
412	3022
412	4161
412	4643
413	465
413	502
413	792
413	1679
413	1693
413	3019
413	3183
413	3691
413	3696
414	1577
414	1831
414	1949
414	2389
414	2619
414	3203
414	3241
414	3562
414	4297
414	4723
415	1873
415	2022
415	2034
415	2717
415	2974
415	3944
415	4167
415	4758
416	667
416	1093
416	1364
416	1629
416	2151
416	2198
416	3003
416	3614
416	3701
416	4355
416	4382
416	4752
417	511
417	1252
417	2632
417	3830
417	4082
417	4450
417	4633
417	4946
417	4958
418	515
418	686
418	1109
418	2231
418	3014
418	3577
418	4170
418	4688
419	723
419	1445
419	1801
419	2397
419	2773
419	3191
419	3487
419	3836
419	3881
419	4023
419	4145
419	4573
420	677
420	1522
420	2082
420	2866
420	2869
420	3207
420	4789
421	482
421	513
421	677
421	1035
421	1387
421	1634
421	2215
421	3550
421	3729
421	3893
421	4935
422	578
422	682
422	1826
422	2365
422	2490
422	2863
422	2972
422	3410
422	3837
422	3881
422	4145
423	1245
423	2836
423	2954
423	3261
423	3318
423	3657
423	4307
424	737
424	2935
424	4247
425	1378
425	2168
425	2528
425	4193
425	4407
425	4687
425	4835
425	4849
425	4862
426	887
426	1070
426	1377
426	1610
426	1727
426	1857
426	2160
426	2801
426	3363
426	4760
427	892
427	1055
427	1500
427	1992
427	2073
427	2126
427	2539
427	2707
427	2755
427	3247
427	3926
427	4154
427	4747
427	4975
427	4987
428	802
428	902
428	2202
428	2440
428	2647
428	3100
428	3481
428	3720
428	4106
428	4525
428	4810
428	4871
428	4986
429	590
429	1205
429	2019
429	2045
429	2048
429	2583
429	2772
429	3082
429	3398
429	3434
429	3868
429	4303
430	1057
430	2190
430	3795
430	4367
430	4394
430	4672
431	592
431	749
431	1489
431	1904
431	3699
431	4200
431	4786
432	510
432	893
432	1247
432	1765
432	2486
432	2751
432	3503
432	4869
433	1030
433	1490
433	1933
433	2147
433	2439
433	2485
433	2904
433	3241
433	4761
434	1946
434	2469
434	3104
434	3222
435	934
435	970
435	1803
435	3405
435	3545
435	3819
436	531
436	626
436	779
436	1201
436	3030
436	3733
436	4638
436	4955
437	898
437	2121
437	3046
437	3251
437	3836
437	4852
438	900
438	1143
438	1609
438	1831
438	2730
438	2962
439	498
439	863
439	1130
439	1373
439	1861
439	1877
439	2010
439	2049
439	2359
439	2400
439	2612
439	3997
440	1507
440	2928
440	3106
440	3400
440	4155
440	4256
440	4345
441	514
441	1032
441	1709
441	2916
441	3087
441	3233
441	4880
441	4977
442	604
442	621
442	822
442	1814
442	3255
442	4126
442	4308
442	4748
443	672
443	834
443	895
443	906
443	1305
443	1482
443	1492
443	1966
443	2272
443	2288
443	2432
443	3094
443	3372
443	3517
443	3980
443	4616
443	4898
444	878
444	911
444	920
444	1589
444	2578
444	4142
445	755
445	965
445	1985
445	2634
445	3257
445	4760
446	2530
446	3287
447	881
447	1564
447	2459
447	3110
447	3391
447	3717
447	3765
447	4122
447	4378
447	4505
448	724
448	770
448	1056
448	1295
448	1347
448	1365
448	1386
448	1757
448	2137
448	2635
448	3854
448	4331
449	698
449	793
449	930
449	1904
449	2058
449	2268
449	2450
449	3201
449	4204
449	4793
450	951
450	1049
450	1075
450	1577
450	2836
450	2987
450	3455
450	3486
450	3836
450	4096
451	493
451	558
451	649
451	1164
451	1600
451	2502
451	3183
451	3883
451	4131
451	4309
451	4939
452	819
452	1523
452	1666
452	2494
452	2721
452	3310
452	3481
452	3673
452	4479
453	1101
453	1745
453	2018
453	2025
453	2095
453	2164
453	2432
453	2751
453	2834
453	2893
453	3457
453	4552
453	4986
454	676
454	923
454	1116
454	2421
454	3253
454	3434
454	3831
454	4243
455	581
455	881
455	1624
455	1704
455	3215
455	3685
455	4552
456	733
456	819
456	1441
456	1999
456	2893
456	2897
456	3071
456	3233
456	4358
456	4743
456	4752
457	1229
457	2064
457	2339
457	2521
457	2722
457	2873
457	3300
457	4091
457	4098
457	4702
458	1094
458	1609
458	2104
458	2475
458	3241
458	3997
458	4377
459	813
459	1025
459	3725
460	615
460	1075
460	1244
460	1553
460	1665
460	1789
460	2080
460	2356
460	2882
460	4138
460	4293
460	4753
460	4909
461	1577
461	2072
461	2112
461	2175
461	2234
461	3066
461	4027
462	888
462	1141
462	1797
462	2316
462	2549
462	2620
462	3064
462	3165
462	4182
463	945
463	1415
463	1426
463	2489
463	2538
463	2616
463	2665
463	4120
463	4510
463	4714
463	4813
464	633
464	1098
464	1163
464	1716
464	1880
464	2156
464	2196
464	2317
464	3039
464	3045
464	3792
464	3914
464	4213
464	4260
464	4545
465	2477
465	3775
465	4891
465	4917
466	475
466	1717
466	2071
466	2140
466	2203
466	3867
466	4777
467	536
467	2067
467	2409
468	597
468	1102
468	1320
468	1435
468	2048
468	2295
468	3450
468	4943
469	617
469	728
469	1360
469	2396
469	2449
469	2680
469	2742
469	4461
469	4707
470	678
470	744
470	762
470	1238
470	1264
470	1666
470	1837
470	2192
470	2345
470	2398
470	2726
471	1257
471	1647
471	2139
471	2924
471	3093
471	3515
471	3894
471	4288
472	524
472	765
472	837
472	1267
472	1402
472	1704
472	1727
472	1853
472	2905
472	3927
473	569
473	911
473	1825
473	2429
473	3023
473	3548
473	3706
473	4306
473	4486
473	4814
474	1402
474	1695
474	2234
474	2408
474	3070
474	3350
474	3721
474	4048
474	4203
474	4322
474	4594
474	4834
475	1144
475	1458
475	1749
475	2101
475	2779
475	3100
475	4000
475	4076
475	4207
475	4487
476	723
476	1314
476	1470
476	1630
476	2497
476	3118
476	4661
476	4824
477	938
477	1360
477	2012
477	2034
477	2245
477	2929
477	3369
477	3420
477	4333
477	4534
477	4585
478	849
478	2075
478	2322
478	2409
478	2484
478	2708
478	3036
478	3225
478	3457
478	3709
479	1140
479	1553
479	1748
479	2116
479	2362
479	2543
479	2632
479	2789
479	3279
479	3726
479	4346
479	4727
480	649
480	1075
480	1392
480	1427
480	1666
480	2129
480	2631
480	3519
480	3977
481	1656
481	3077
481	3595
481	3783
481	4340
481	4511
481	4708
481	4769
481	4917
482	1015
482	1143
482	1170
482	1743
482	2327
482	2484
482	2543
482	3152
482	3201
482	3263
482	3396
482	3648
482	3925
482	4061
482	4410
482	4532
483	1144
483	1343
483	2150
483	2314
483	3105
483	3669
483	4175
484	656
484	1732
484	2336
484	3152
484	3454
484	3812
484	4157
484	4394
484	4933
485	1210
485	1544
485	2256
485	2394
485	2614
485	2658
485	2737
485	3200
485	3240
485	3327
485	3855
486	1649
486	1792
486	1852
486	2042
486	2493
486	2619
486	3062
486	4055
486	4691
486	4694
486	4737
487	1029
487	1209
487	1426
487	1632
487	2608
487	4503
487	4612
487	4757
487	4818
487	4970
487	4995
488	932
488	1293
488	1521
488	2104
488	2201
488	2653
488	2894
488	4799
489	765
489	1234
489	1612
489	1895
489	2271
489	3505
489	4099
489	4260
489	4788
490	621
490	715
490	1305
490	1889
490	2118
490	2650
490	2859
490	3303
490	4095
491	1609
491	1650
491	2254
491	2482
491	2493
491	2526
491	3095
491	3505
491	3556
491	3679
492	1099
492	1829
492	2242
492	2712
492	2893
492	3466
492	4050
492	4265
492	4974
493	978
493	1572
493	2219
493	2230
493	3360
493	3619
493	4031
493	4822
494	1095
494	1462
494	2503
494	3103
494	3524
495	1314
495	2005
495	2222
495	3764
495	4514
496	1031
496	1499
496	1860
496	2156
496	4200
496	4455
496	4543
496	4628
496	4920
496	4928
496	4963
497	1567
497	3898
497	4038
497	4631
498	678
498	786
498	806
498	1996
498	2775
498	3526
498	3678
498	4182
498	4424
499	868
499	1718
499	1795
499	3124
499	4491
500	548
500	2016
500	3003
500	4702
501	607
501	703
501	826
501	1594
501	1814
501	2670
501	2754
501	3010
501	3096
501	4585
501	4850
502	974
502	1784
502	1850
502	1996
502	3217
502	3385
502	4861
503	1205
503	1418
503	2392
503	2632
503	2900
503	3405
503	3500
504	522
504	1086
504	1234
504	1609
504	1785
504	1843
504	2515
504	2827
504	3455
504	4478
505	860
505	1656
505	1990
505	2122
505	2448
505	2498
505	4158
506	797
506	1425
506	2725
506	2727
506	3055
506	3169
506	3543
506	3725
506	3946
506	4332
506	4623
507	761
507	774
507	1517
507	1896
507	2208
508	665
508	742
508	858
508	1276
508	1862
508	1989
508	3530
508	4603
509	1671
509	2061
509	2541
509	2579
509	4155
509	4254
510	635
510	2162
510	3535
510	4626
510	4641
511	1012
511	1014
511	1333
511	1602
511	2641
511	3045
511	3177
511	3325
511	3355
511	3424
511	3866
511	4070
511	4147
512	708
512	946
512	1074
512	1624
512	2154
512	2815
512	3729
512	4349
512	4686
512	4881
512	4951
513	722
513	1795
513	1918
513	1972
513	2068
513	2077
513	2953
513	3135
513	3412
513	3505
513	4057
513	4058
514	1920
514	2931
514	3042
514	3110
514	3596
514	3997
514	4180
514	4682
515	704
515	1454
515	1522
515	1559
515	1778
515	2008
515	2090
515	2439
515	2750
515	2993
515	3142
515	4535
516	1128
516	1436
516	2102
516	2658
516	2826
516	3112
516	3362
516	4760
517	1383
517	1558
517	2005
517	2258
517	2867
517	3187
517	3298
517	4058
517	4500
517	4757
518	998
518	1375
518	1845
518	2360
518	2424
518	2498
518	2544
518	3333
518	4443
518	4778
519	760
519	2570
519	2676
519	3030
519	3646
519	3867
519	3891
519	3975
519	4080
519	4754
520	1132
520	2148
520	3633
520	4199
520	4616
520	4712
520	4831
521	726
521	1719
521	2051
521	2215
521	3434
521	3738
521	3807
521	3994
521	4069
521	4853
521	4862
522	860
522	1030
522	1032
522	1065
522	1416
523	540
523	569
523	1747
523	2032
523	2231
523	2599
523	2642
523	3181
523	3257
523	3506
523	4409
523	4943
524	1018
524	1704
524	1933
524	2536
524	3334
524	3368
524	3554
524	3881
525	1957
525	2913
525	3945
526	1683
526	3852
526	3974
526	4153
526	4306
526	4521
526	4862
527	1075
527	2204
527	2446
527	4913
528	535
528	1708
528	2061
528	4200
529	634
529	1178
529	1628
529	1682
529	1739
529	1979
529	2039
529	2363
529	2437
529	2635
529	3466
529	3532
529	4344
529	4437
530	1411
530	1695
530	2090
530	3594
530	4004
530	4194
530	4395
530	4977
531	1075
531	1079
531	1134
531	1315
531	2140
531	2963
531	3274
531	3683
531	4399
532	626
532	1287
532	2854
532	4170
532	4209
532	4711
533	630
533	931
533	1646
533	2119
533	3074
533	4510
533	4523
533	4619
534	1030
534	1125
534	2116
534	2913
534	2926
534	2962
534	3559
534	3785
534	3833
534	4810
534	4927
535	1492
535	1553
535	2145
535	3601
535	3959
536	644
536	1866
536	2165
536	3238
536	3913
536	4068
536	4413
536	4859
536	4885
536	4912
537	542
537	714
537	969
537	1315
537	3200
537	4457
537	4534
538	1425
538	1681
538	2838
538	3091
538	3322
538	4093
538	4323
539	585
539	776
539	1463
539	2053
539	2355
539	2450
539	2521
539	2975
539	3491
539	4077
539	4275
539	4925
540	837
540	1161
540	1353
540	1484
540	1510
540	1795
540	2870
540	3239
540	3271
540	3597
540	3854
540	4899
541	582
541	953
541	1036
541	1061
541	1891
541	1913
541	2581
541	3283
541	4136
541	4295
542	606
542	1258
542	2507
542	3658
542	4852
543	1005
543	1813
543	2267
543	2352
543	2749
543	2775
543	3281
543	3356
543	4080
543	4108
543	4148
543	4158
543	4381
543	4518
543	4731
544	1099
544	1795
544	2505
544	2755
544	3075
544	4153
544	4267
544	4350
544	4431
544	4476
545	746
545	774
545	1726
545	2395
545	2989
545	3666
545	4712
546	963
546	1095
546	1407
546	1564
546	1809
546	2042
546	2171
546	2788
546	2890
546	3159
546	3511
546	4607
547	947
547	1330
547	2039
547	2191
547	2672
547	2868
547	3213
547	3373
547	3489
547	4523
547	4674
548	1304
548	1872
548	3221
548	4748
548	4882
549	825
549	1147
549	1334
549	1911
549	2592
549	2811
549	3830
549	4255
549	4463
549	4515
550	804
550	1056
550	1186
550	1859
550	2010
550	3320
550	4588
550	4661
550	4879
551	928
551	1548
551	2218
551	2354
551	3002
551	3393
551	3504
551	3544
551	3714
551	3887
552	1212
552	1275
552	2176
552	2497
552	2720
552	3243
552	3728
552	4168
552	4427
553	724
553	746
553	1280
553	1564
553	2460
553	3096
553	3743
554	670
554	980
554	1067
554	1247
554	2436
554	4013
554	4537
555	648
555	1267
555	1331
555	1876
555	2939
555	3494
555	3660
555	4801
556	621
556	919
556	1067
556	2788
556	3176
556	3683
556	4674
556	4789
557	1256
557	2580
557	3030
557	3444
557	3882
557	4405
558	681
558	816
558	824
558	1702
558	2109
558	2379
558	2670
558	2957
558	3808
558	3951
558	4301
558	4933
559	735
559	801
559	2324
559	2955
559	3293
559	4829
560	1459
560	2278
560	3496
560	3676
560	4065
561	1263
561	2344
561	2552
561	3444
561	4080
562	883
562	1040
562	1125
562	2402
562	3247
562	3718
562	3732
562	4837
562	4838
563	754
563	856
563	928
563	1477
563	2811
563	3657
563	3661
563	3768
563	4042
563	4167
564	1374
564	1802
564	2058
564	2564
564	2739
564	3960
564	4319
564	4338
564	4574
565	840
565	1290
565	2229
565	2849
565	3076
565	3453
565	4223
566	1748
566	2072
566	2142
566	2218
566	2260
566	3427
566	4009
566	4349
566	4667
566	4712
566	4834
566	4947
567	577
567	1794
567	3965
567	4500
567	4585
567	4610
567	4679
568	1008
568	1527
568	2012
568	2399
568	2920
568	4635
569	819
569	862
569	1508
569	2522
569	4967
570	1365
570	2547
570	3307
570	4544
570	4653
571	597
571	877
571	1029
571	1462
571	1509
571	1632
571	1930
571	2125
571	2637
571	3590
571	4051
571	4099
571	4230
571	4445
571	4806
572	1268
572	2020
572	2131
572	2527
572	3339
572	4387
572	4864
573	3200
574	952
574	2365
574	3030
574	3487
574	4773
574	4826
575	1258
575	2038
575	4442
576	1791
576	2875
576	3365
576	3769
576	3800
576	4142
576	4826
577	980
577	1031
577	1142
577	1710
577	1961
577	1967
577	2037
577	2877
577	3879
577	4200
577	4625
577	4721
578	1226
578	1531
578	1722
578	2563
578	2991
578	4137
578	4598
579	1787
579	2390
579	2901
579	3060
579	4458
579	4552
580	885
580	2754
580	3240
580	4312
580	4622
580	4811
581	1143
581	1663
581	1739
581	1923
581	2590
581	3677
581	3775
581	3858
581	4254
582	2436
582	2628
582	3527
582	4110
582	4267
582	4753
583	669
583	3582
583	3732
583	4626
584	805
584	1232
584	1264
584	1275
584	1798
584	2462
584	2681
584	3402
584	3535
584	3915
584	4051
584	4463
585	776
585	1944
585	2999
585	3191
585	3407
585	3418
585	3593
585	3640
585	3755
585	3961
586	776
586	1103
586	1250
586	3710
586	4055
586	4195
586	4963
587	971
587	992
587	1098
587	3656
587	3825
587	3911
587	4383
588	654
588	792
588	1441
588	1770
588	3284
588	3331
588	4790
589	1249
589	3431
589	4037
589	4558
589	4947
590	2042
590	2085
590	2106
590	2344
590	2968
590	3174
590	3521
590	4349
591	1416
591	1719
591	1795
591	1802
591	1985
591	2127
591	2365
591	3146
591	3232
591	3381
591	3543
591	3594
592	751
592	762
592	2278
592	2869
592	3055
592	3329
592	3759
592	4170
592	4178
592	4214
592	4601
593	1471
593	1671
593	2003
593	3419
593	4243
593	4897
593	4920
594	733
594	962
594	1247
594	1346
594	1651
594	1850
594	2404
594	2565
594	2717
594	2892
594	4853
595	775
595	932
595	1315
595	2005
595	2450
595	2633
595	3074
595	3153
595	3390
595	3512
595	3591
595	3692
595	4187
595	4220
595	4340
595	4877
596	1182
596	1735
596	1944
596	2240
596	2581
596	2799
596	3169
596	3475
596	3494
596	4516
597	852
597	933
597	1121
597	1500
597	1652
597	1992
597	2402
597	2408
597	2643
597	3143
597	3351
597	4019
597	4699
597	4884
598	1276
598	2421
598	2582
598	2587
598	2607
598	2713
598	3039
598	3856
598	3953
599	1023
599	2036
599	2543
599	2836
599	2956
599	3013
599	3063
599	4637
600	608
600	1441
600	2298
600	3212
600	3392
600	4380
601	670
601	1132
601	1683
601	2341
601	2382
601	3552
601	3923
601	4299
601	4541
602	613
602	1112
602	1519
602	2118
602	3424
602	4026
602	4598
602	4821
603	2158
603	2328
603	3536
603	3928
603	3945
603	4893
604	1009
604	1946
604	2030
604	2086
604	2381
604	2957
604	3050
604	4384
604	4809
605	979
605	1035
605	1619
605	2424
605	3461
605	4318
605	4334
605	4690
605	4952
606	1545
606	2705
606	4324
607	1203
607	1910
607	2605
607	4284
607	4462
607	4476
607	4789
608	951
608	1955
608	2148
608	2516
608	3168
608	3208
608	4200
608	4907
609	772
609	1393
609	1821
609	1972
609	2153
609	2269
609	2551
609	4541
609	4836
610	618
610	626
610	1091
610	1481
610	1616
610	1783
610	1834
610	1888
610	2469
610	2886
610	3342
611	701
611	912
611	2200
611	2462
611	2691
611	2729
612	786
612	805
612	1904
612	1955
612	2152
612	2486
612	2507
612	3606
612	3649
612	4094
612	4741
612	4972
613	749
613	1319
613	1475
613	2265
613	2750
613	3213
613	3378
613	4546
613	4652
614	818
614	960
614	985
614	1352
614	2458
614	2576
614	2664
614	2764
614	3290
614	4117
615	765
615	1196
615	2605
615	2739
615	3985
615	4689
615	4933
615	4965
616	788
616	949
616	954
616	962
616	1819
616	2711
616	3083
616	3252
616	4199
616	4226
616	4747
617	1815
617	1846
617	1847
617	2245
617	2265
617	2780
617	3132
617	3887
617	4287
617	4643
618	1108
618	2043
618	2792
618	2837
618	2948
618	3195
618	3827
618	4411
618	4502
618	4631
618	4846
619	1340
619	1682
619	1866
619	2220
619	3344
619	3520
619	3986
619	4904
620	651
620	775
620	1407
620	1479
620	1765
620	1889
620	1986
620	2145
620	2347
620	2611
620	2963
620	3475
620	3561
620	3826
620	3894
620	4375
620	4612
621	1078
621	1148
621	1591
621	1653
621	1658
621	1762
621	1987
621	2521
621	3477
621	3825
621	4284
621	4308
621	4746
621	4874
622	939
622	1293
622	1587
622	2155
622	2904
622	4276
622	4556
622	4595
622	4810
623	1579
623	2265
623	2359
623	3308
623	4549
623	4616
624	810
624	1543
624	2857
624	3015
624	3756
624	4294
624	4437
624	4454
625	973
625	1103
625	1180
625	1360
625	1466
625	1958
625	2578
625	2850
625	3739
625	4157
625	4396
625	4685
625	4862
626	684
626	1296
626	1676
626	1889
626	2188
626	2332
626	2436
626	3300
626	3636
627	885
627	1729
627	2207
627	3151
627	3603
627	3752
627	3764
627	4025
627	4565
627	4608
627	4648
628	1042
628	1403
628	1710
628	1861
628	2966
628	3419
628	4338
629	1103
629	1361
629	1385
629	1634
629	3823
629	3841
629	4819
630	887
630	1043
630	1731
630	1777
630	3036
630	3305
630	4101
630	4150
630	4432
630	4546
630	4974
631	1313
631	1509
631	1695
631	1724
631	1851
631	1879
631	2486
631	2959
631	2988
631	3407
631	3440
631	3713
631	3788
631	3819
631	3952
632	1181
632	1200
632	1348
632	1798
632	1855
632	2007
632	2056
632	3663
632	4196
632	4425
633	1214
633	1418
633	2164
633	4297
633	4795
633	4837
634	1933
634	2079
634	2345
634	2355
634	2903
634	3153
634	3462
634	4099
635	1679
635	2521
635	2958
635	3451
635	3774
635	4007
635	4299
635	4965
636	1343
636	1505
636	2443
636	2538
636	3252
636	3569
636	3706
636	3818
636	4072
636	4185
636	4225
636	4249
637	847
637	975
637	1570
637	2363
637	2505
637	2960
637	3444
637	3599
637	3766
637	4240
637	4674
637	4929
638	1243
638	1405
638	2021
638	3242
638	3626
638	3627
638	3868
639	880
639	2898
639	3369
639	3384
639	3836
639	4171
639	4202
640	1313
640	1353
640	1573
640	1869
640	2332
640	2454
640	2608
640	3217
640	4058
640	4360
640	4499
640	4743
641	977
641	1360
641	1971
641	2178
641	2355
641	2496
641	2580
641	2795
641	4013
641	4037
641	4217
641	4763
642	742
642	1678
642	4645
643	2125
643	2600
643	2825
643	2913
643	4011
643	4013
643	4545
643	4569
644	1043
644	1297
644	2082
644	2227
644	2565
644	2855
644	3206
644	3892
644	4055
645	1085
645	2189
645	2490
645	3006
645	3319
645	4875
646	1640
646	2623
646	2816
646	3346
646	4504
646	4896
646	4970
647	1681
647	2829
647	2928
647	3508
647	4290
648	2662
648	3426
648	4320
648	4508
649	916
649	1318
649	3347
649	4281
649	4707
649	4890
650	689
650	1210
650	1413
650	2380
650	2647
650	2722
650	2844
650	3577
650	3814
650	4391
650	4611
651	684
651	760
651	1239
651	1836
651	2122
651	2371
651	2593
651	2635
651	2648
651	3846
651	4739
652	823
652	1921
652	3590
652	4320
652	4716
652	4770
653	674
653	1628
653	2137
653	2219
653	3013
653	3193
653	3401
653	3525
653	4725
654	1670
654	2482
654	3212
654	3439
654	4060
654	4373
654	4398
655	1835
655	3193
655	3219
655	3575
655	4419
655	4519
656	1119
656	1132
656	1274
656	1336
656	1346
656	1823
656	2234
656	2660
656	3163
656	3174
656	3326
656	3922
656	4025
656	4201
656	4354
656	4359
656	4404
656	4871
656	4930
657	821
657	1088
657	1187
657	1967
657	3011
657	3038
657	4810
658	725
658	855
658	959
658	1870
658	2843
658	3015
658	3694
658	4413
659	1004
659	1148
659	2059
659	2197
659	2363
659	2758
659	2859
659	3430
659	3976
659	4874
659	4993
660	676
660	806
660	887
660	1603
660	3421
660	3808
660	3929
660	4200
660	4386
660	4973
661	865
661	1083
661	1172
661	1259
661	2452
661	2844
661	3554
661	3838
661	4959
662	758
662	1061
662	2378
662	4243
662	4449
662	4871
663	1166
663	1353
663	2235
663	2944
663	3529
663	3646
663	3717
663	4689
664	1119
664	1825
664	2146
664	2324
664	3936
664	3986
664	4144
665	1267
665	1283
665	1977
665	2206
665	2641
665	2753
665	2757
665	2829
665	2969
665	3308
665	3806
665	4076
666	861
666	936
666	2689
666	4971
667	1168
667	1611
667	2533
667	2933
667	3120
667	3348
667	3534
667	4718
667	4745
667	4845
668	932
668	1084
668	3988
668	4247
668	4283
668	4543
669	776
669	1370
669	1785
669	2195
669	2283
669	2514
669	4836
669	4847
669	4863
670	680
670	870
670	1898
670	2012
670	2146
670	2314
670	2547
670	2900
670	3407
670	4127
671	4068
671	4250
671	4309
671	4574
671	4845
671	4871
672	1321
672	2246
672	2335
672	3363
672	3433
672	3911
672	4098
673	970
673	1160
673	1440
673	2228
673	4175
673	4197
673	4337
673	4627
673	4897
673	4913
674	1879
674	1888
674	2240
674	2600
674	4061
674	4096
675	2473
675	4200
676	919
676	1687
676	1993
676	2171
676	3057
676	3145
676	3287
676	3331
676	4226
677	1451
677	1773
677	2002
677	2784
677	2847
677	3554
677	4430
677	4753
677	4754
677	4923
677	4935
678	695
678	1185
678	2209
678	2494
678	2871
678	3108
678	3296
678	3722
679	1431
679	1995
679	2509
679	3778
679	3984
679	4129
680	1883
680	2454
680	2815
680	2870
680	3056
680	3452
680	3864
680	3990
680	4035
680	4199
680	4697
681	682
681	1173
681	2403
681	2704
681	4151
681	4544
681	4572
681	4576
681	4899
682	1639
682	1942
682	2284
682	2547
682	2987
682	3130
682	3597
682	3604
683	1520
683	1526
683	2252
683	2350
683	3283
683	3520
684	2176
684	3647
684	3710
684	3930
684	3984
684	4431
684	4841
684	4864
685	862
685	1570
685	2682
685	2841
685	4192
686	692
686	750
686	1515
686	2027
686	2132
686	2394
686	2818
686	3505
686	4240
686	4296
686	4799
687	822
687	962
687	2363
687	2524
687	2656
687	3092
687	3860
687	3934
687	3948
687	4264
687	4361
687	4842
688	1114
688	1136
688	1672
688	1677
688	1806
688	2064
688	2087
688	2138
688	2692
688	3416
688	3901
688	3919
688	4008
688	4346
688	4683
688	4957
689	1171
689	1453
689	2977
689	3281
689	3586
689	3671
689	3879
689	3921
689	4304
689	4374
689	4587
689	4817
690	1173
690	1180
690	2561
690	2839
690	4370
691	2625
691	4323
692	813
692	1205
692	3369
692	3523
692	3722
693	1457
693	1613
693	3062
693	3282
693	3396
693	3502
693	4145
694	1212
694	1750
694	3382
694	4105
695	832
695	2375
695	3033
695	4096
696	824
696	1276
696	1284
696	1448
696	2001
696	3122
696	3302
696	3756
696	3771
696	4360
696	4509
696	4947
697	723
697	1344
697	1734
697	2223
697	2412
697	2580
697	2640
697	3617
697	3835
697	4379
697	4783
698	985
698	2300
698	3295
699	921
699	1852
699	1954
699	2077
699	2167
699	3748
699	4688
700	867
700	1008
700	1852
700	2616
700	3652
700	3745
700	3906
700	4127
700	4465
700	4491
700	4872
701	1170
701	1270
701	2654
701	3511
701	3611
701	4557
701	4816
701	4992
702	1277
702	1807
702	3178
702	3423
702	4104
703	1043
703	1060
703	1234
703	1980
703	2137
703	2198
703	2579
703	3373
703	3437
704	768
704	1135
704	1362
704	1396
704	3945
704	4195
704	4223
705	1369
705	1469
705	1599
705	1610
705	2048
705	2251
705	2798
705	2989
706	796
706	1032
706	1243
706	2053
706	2544
706	4254
706	4284
706	4521
706	4928
706	4990
707	876
707	1845
707	1994
707	2627
707	2760
707	2851
707	3359
707	3387
707	4008
707	4261
707	4453
707	4486
707	4786
708	1777
708	1788
708	2067
708	2465
708	3255
708	3919
708	4051
708	4333
708	4381
708	4480
708	4597
709	1077
709	1243
709	2349
709	3496
709	4039
709	4597
710	1488
710	2039
710	2129
710	2287
710	2506
710	2645
710	2947
710	3710
711	1319
711	2105
711	2436
711	2550
711	2830
711	3586
711	4079
712	1734
712	1752
712	2049
712	2151
712	4959
713	1171
713	1466
713	2179
713	3561
713	4652
714	1215
714	1249
714	2653
714	2736
714	2767
714	3139
714	3513
714	4304
714	4491
715	1546
715	1663
715	2070
715	3044
715	3259
715	3422
715	3477
715	4991
716	2067
716	2411
716	3222
716	3549
716	3861
716	4090
716	4477
716	4585
716	4632
716	4650
716	4902
717	829
717	878
717	1077
717	1168
717	1224
717	1295
717	2558
717	3000
717	3766
717	3897
717	3928
717	4168
717	4274
717	4296
717	4912
718	1547
718	1687
718	2777
718	3519
718	3621
718	3774
718	3862
718	4527
718	4957
718	4985
719	1039
719	1751
719	3234
719	3553
719	4334
719	4438
719	4913
720	917
720	1242
720	2113
720	3008
720	3466
720	3659
720	3926
720	4975
721	915
721	1301
721	2447
721	2474
721	2647
721	2716
721	3639
721	3703
721	3884
721	4560
721	4587
721	4836
722	772
722	1038
722	1348
722	1610
722	2092
722	2222
722	2298
722	2968
722	3108
722	3142
722	3211
722	3323
722	3335
722	4480
723	1857
723	2305
723	2344
723	2415
723	2869
723	3450
723	3508
723	4271
723	4486
724	1513
724	2008
724	2058
724	2134
724	2609
724	2640
724	3246
724	3316
724	3321
725	1208
725	1361
725	1706
725	2831
725	4174
726	1401
726	3866
726	4054
726	4846
727	2372
727	2387
727	2644
727	4607
728	926
728	1086
728	1665
728	1881
728	2133
728	2249
728	2631
728	3014
728	4186
728	4527
729	1246
729	1415
729	2894
729	2994
729	4162
729	4363
729	4379
729	4405
729	4587
730	1565
730	1751
730	2322
730	2576
730	3103
730	4441
730	4475
730	4904
731	761
731	779
731	2195
731	2429
731	2819
731	2911
731	3134
732	936
732	1500
732	3632
732	3666
733	745
733	1033
733	1224
733	1446
733	1625
733	1715
733	1798
733	2998
733	3101
733	3443
733	3483
733	3750
734	1704
734	2353
734	3768
734	4241
735	1756
735	2279
735	4079
736	1032
736	2071
736	2106
736	2256
736	2541
736	2771
736	3408
736	3868
736	4297
736	4307
737	1434
737	1639
737	2071
737	2585
737	2758
737	2916
737	3950
738	901
738	1544
738	4284
739	985
739	1457
739	2482
739	3155
739	3773
739	3782
739	3885
739	4295
740	883
740	1021
740	2466
740	3297
740	4046
740	4911
741	753
741	938
741	1632
741	2136
741	2159
741	2163
741	2429
741	2477
741	2743
741	2838
741	4142
741	4341
741	4921
742	1189
742	1345
742	1430
742	1597
742	1911
742	2143
742	2675
742	3374
742	3540
742	3965
742	4629
742	4647
743	802
743	1022
743	1501
743	1754
743	1852
743	2424
743	2573
743	3097
743	3502
743	3548
743	3672
743	3771
744	895
744	1068
744	1076
744	1519
744	2590
744	3013
744	3139
744	4675
744	4834
744	4916
745	1010
745	1151
745	1234
745	3979
745	4518
745	4819
745	4907
746	1753
746	1903
746	2147
746	3315
746	4117
746	4179
746	4222
746	4488
747	950
747	1094
747	1267
747	1799
747	2010
747	2220
747	2945
747	3284
747	3854
747	4026
747	4119
747	4955
748	769
748	791
748	902
748	967
748	1064
748	1375
748	1733
748	1760
748	2440
748	2589
748	2634
748	3984
748	4434
749	791
749	838
749	1127
749	3006
749	3287
749	3567
749	3601
749	3625
749	3755
749	4299
749	4885
749	4970
750	1240
750	1590
750	1862
750	1991
750	2096
750	2166
750	2319
750	2984
750	4105
750	4231
750	4291
750	4441
750	4820
751	781
751	1081
751	1393
751	1409
751	2022
751	2322
751	3101
751	3550
751	3983
751	4005
751	4362
752	1116
752	1569
752	2362
752	3361
752	4084
752	4343
752	4500
752	4569
752	4871
753	825
753	1478
753	1675
753	1912
753	2297
753	3604
753	3826
753	3997
753	4835
754	969
754	1727
754	2292
754	3297
754	4188
754	4338
754	4882
755	1512
755	1704
755	1849
755	1883
755	2053
755	4268
755	4303
755	4659
756	1809
756	2237
756	2805
756	3524
756	4117
756	4597
757	821
757	935
757	982
757	1013
757	1571
757	1871
757	1912
757	2852
757	3170
757	3815
757	4442
757	4908
758	927
758	1527
758	2610
758	2693
758	2777
758	3046
758	3296
758	3668
758	3682
758	4517
758	4555
758	4642
758	4770
758	4914
759	1381
759	1494
759	1775
759	3222
759	3529
759	4012
759	4273
760	1113
760	1785
760	2023
760	3023
760	3056
760	3603
760	3770
760	3826
760	4240
760	4963
761	1431
761	1988
761	2693
761	3350
761	3876
761	4441
762	894
762	1649
762	1914
762	1943
762	3467
762	3600
762	4012
762	4146
763	1172
763	2042
763	2141
763	2352
763	2798
763	3095
763	3920
763	4294
763	4435
764	1231
764	1693
764	1704
764	1861
764	3234
764	3640
764	3660
764	4057
764	4573
765	1015
765	1220
765	1452
765	1893
765	1928
765	1942
765	1985
765	3001
765	3800
765	4232
765	4320
765	4744
766	1288
766	1754
766	2000
766	2413
766	2628
766	2888
766	3147
766	3274
766	3299
766	4275
767	2075
767	2419
767	2783
767	3072
767	4459
767	4530
767	4845
768	2351
768	2980
768	3048
768	4195
768	4482
768	4712
769	936
769	1608
769	2861
769	3062
769	3391
769	3415
769	4356
769	4358
769	4625
770	1706
770	2132
770	2137
770	2477
770	2764
770	2858
770	3353
770	3981
771	790
771	1058
771	1182
771	1334
771	2012
771	2256
771	2410
771	2570
771	3570
771	3962
771	4010
771	4108
771	4161
771	4486
771	4806
771	4818
772	1132
772	1213
772	1665
772	1724
772	1759
772	2230
772	2532
772	2750
772	3077
772	3372
772	4397
772	4655
773	933
773	1441
773	1702
773	2342
773	2475
773	3059
773	3490
773	3728
773	4083
773	4252
773	4443
773	4561
774	1074
774	1839
774	2300
774	3044
774	3556
774	4660
775	931
775	1876
775	2211
775	2380
775	2654
775	2703
775	3191
775	3212
775	3432
775	4099
775	4216
775	4378
775	4749
775	4878
776	872
776	1076
776	1368
776	1917
776	1954
776	2089
776	3104
776	3829
776	4984
777	1398
777	1441
777	2518
777	3579
777	3650
777	3924
777	3979
777	4163
777	4838
778	1368
778	2038
778	2210
778	2388
778	2957
778	4652
779	918
779	1732
779	2181
779	2477
779	3993
780	1409
780	1519
780	1535
780	2512
780	2823
780	2874
780	3132
780	4447
780	4794
781	1170
781	2677
781	2851
781	2906
781	3411
781	3423
781	3447
781	3895
781	3968
781	4330
781	4344
781	4648
782	930
782	1271
782	1521
782	1818
782	2187
782	2286
782	2879
782	3608
782	3873
782	4747
783	1218
783	2286
783	2990
783	3476
783	4401
783	4430
784	1174
784	1417
784	1971
784	2152
784	2365
784	3081
784	3621
784	3628
784	3686
784	4012
784	4247
784	4362
784	4855
784	4856
784	4973
785	964
785	1156
785	1827
785	2186
785	2190
785	2298
785	2546
785	2598
785	2942
785	2979
785	3087
785	3745
785	3754
785	4031
785	4740
786	876
786	1041
786	1896
786	2870
786	3311
786	3846
786	4327
786	4452
786	4944
787	914
787	1243
787	1408
787	1953
787	2410
787	2661
787	2917
787	3120
787	3645
787	3654
787	3765
787	4940
788	1579
788	1950
788	2259
788	2315
788	3525
788	4269
788	4319
788	4536
789	1214
789	1497
789	2056
789	2098
789	2485
789	2518
789	3381
789	3861
789	4110
789	4258
789	4582
790	1177
790	2201
790	3295
790	3403
790	3619
790	4050
791	1308
791	1388
791	1398
791	1828
791	1829
791	2261
791	3176
791	4071
792	882
792	1576
792	1681
792	2716
792	2805
792	2931
792	4043
792	4239
792	4484
793	2444
793	3431
793	3729
794	1262
794	1305
794	1768
794	1904
794	2058
794	4256
794	4696
794	4704
794	4800
795	985
795	1107
795	1121
795	3444
795	3719
795	3798
796	1184
796	1235
796	2224
796	3346
796	3381
796	3527
796	4116
796	4622
796	4682
796	4861
797	1108
797	1167
797	1282
797	1406
797	2737
797	2808
797	3122
797	3947
797	4046
797	4949
798	890
798	1330
798	1743
798	2115
798	2357
798	2816
798	3302
798	4365
799	1056
799	1126
799	1789
799	2262
799	2353
799	2430
799	3018
799	3029
799	3520
799	3624
799	3766
799	4091
799	4394
799	4685
800	1780
800	1830
800	2215
800	2766
800	2827
800	2898
800	3327
800	3679
800	4063
800	4260
800	4355
800	4745
801	1131
801	1489
801	3124
801	3464
801	3546
801	3969
801	4604
802	1816
802	2583
802	3106
802	4253
802	4281
802	4393
802	4547
802	4614
802	4762
803	1716
803	2436
803	2536
803	3021
803	3178
803	3846
803	4142
803	4811
804	833
804	933
804	1414
804	1419
804	1863
804	1864
804	2356
804	3951
804	4424
804	4765
805	1346
805	2012
805	3943
805	4330
805	4682
805	4991
806	1119
806	3122
806	3498
806	3587
806	3612
806	3675
806	4564
807	997
807	1176
807	1279
807	1323
807	3393
807	3968
808	835
808	1225
808	1873
808	2097
808	2184
808	2226
808	2925
808	4314
808	4453
808	4619
808	4814
809	967
809	2639
809	3477
809	3692
809	4511
809	4921
810	1146
810	1618
810	1891
810	2366
810	2445
810	2672
810	2780
810	3784
810	3896
810	4747
810	4762
810	4966
811	1008
811	1320
811	1406
811	1886
811	2241
811	2825
811	3075
811	3417
811	4019
812	922
812	2458
812	2863
812	2952
812	3365
812	3843
812	4197
812	4806
813	836
813	852
813	939
813	1152
813	2214
813	2324
813	2878
813	3930
813	4073
813	4260
813	4322
813	4333
814	1061
814	1589
814	2667
814	3643
814	4265
814	4833
815	1119
815	1499
815	1689
815	1896
815	2566
815	2612
815	3366
815	4620
815	4716
815	4903
816	1092
816	1293
816	1635
816	1645
816	1785
816	2428
816	3377
816	3382
816	4492
817	954
817	1866
817	2118
817	2229
817	2332
817	2493
817	2525
817	3655
817	4514
817	4520
817	4544
817	4809
817	4859
818	1340
818	2319
818	2650
818	3343
818	3630
818	4032
818	4517
819	1768
819	2130
819	2185
819	2322
819	2385
819	3056
819	3436
819	3738
819	4783
819	4908
820	2957
820	3177
820	3312
820	4072
820	4251
820	4433
820	4579
820	4947
821	1736
821	2638
821	2819
821	2836
821	3017
821	4069
821	4323
821	4431
822	1094
822	1488
822	1798
822	2554
822	2895
822	2932
822	3828
822	4293
823	1473
823	1553
823	2092
823	3136
823	3327
823	3617
823	3881
823	3890
823	4016
823	4185
824	1719
824	1823
824	1861
824	2107
824	2415
824	3164
824	3587
824	4059
824	4093
824	4273
825	1063
825	1146
825	1263
825	1805
825	1884
825	1893
825	3225
825	3953
825	4031
825	4071
825	4154
825	4945
826	1129
826	1322
826	1459
826	2388
826	3407
826	3805
826	3812
827	1157
827	2182
827	2203
827	2662
827	2667
827	4156
827	4335
828	1516
828	2174
828	2551
828	3448
828	3587
828	3785
829	1078
829	2714
829	2768
829	2840
829	3388
829	3556
829	3865
829	4437
829	4713
829	4937
829	4946
830	1027
830	1112
830	2475
830	3124
830	3526
830	3612
830	3681
830	3727
830	3966
830	4199
830	4742
830	4833
830	4853
831	1071
831	3253
831	3578
831	3641
831	4800
832	1525
832	1533
832	1541
832	1982
832	1985
832	2703
832	3230
832	3319
832	4100
832	4225
832	4632
833	1146
833	1512
833	1771
833	2572
833	2675
833	2795
833	2891
833	3112
833	3290
833	3817
833	4429
833	4626
834	1267
834	1292
834	1715
834	4111
834	4267
835	1293
835	1586
835	1650
835	2310
835	2460
835	2524
835	4201
835	4567
835	4674
836	1939
836	2837
836	3570
836	3742
836	3763
836	3951
836	4870
837	1592
837	1601
837	1733
837	2271
837	3455
837	3876
837	4012
837	4970
838	876
838	911
838	1680
838	2404
838	2551
838	3231
838	3923
838	4260
838	4379
838	4641
838	4691
838	4773
838	4924
839	1004
839	1023
839	1034
839	1172
839	1419
839	1665
839	1910
839	2947
839	3873
839	4727
840	1174
840	2451
840	2652
840	3086
840	3266
840	3290
840	4311
840	4519
840	4855
841	2307
841	2836
841	3117
841	3283
841	3592
841	3913
841	4440
841	4842
842	958
842	1530
842	1787
842	2179
842	4017
843	1084
843	1413
843	1764
843	1968
843	2685
843	3316
843	3532
843	3589
843	4030
843	4038
843	4570
844	944
844	1092
844	1716
844	2056
844	2577
844	2641
844	3079
844	3190
844	4655
845	1424
845	2087
845	2527
845	3752
845	3935
845	4098
845	4178
845	4807
846	999
846	2832
846	3718
846	3768
846	4116
847	1300
847	2493
847	2722
847	2765
847	4560
848	1036
848	1341
848	2293
848	3435
848	3508
848	3649
848	4020
848	4904
849	933
849	1116
849	1637
849	4381
849	4885
850	2019
850	3547
850	4248
850	4477
850	4554
850	4873
851	1247
851	1303
851	1645
851	2155
851	2471
851	3318
851	3409
851	4261
851	4809
852	1052
852	1193
852	2306
852	2312
852	2662
852	3415
852	3696
853	3082
853	3753
853	3883
854	1089
854	1425
854	3583
854	4458
854	4817
854	4822
855	1760
855	1826
855	1964
855	2178
855	2356
855	2649
855	2856
855	3350
855	3373
855	3519
855	3683
855	4478
855	4938
856	1933
856	2080
856	2573
856	2688
856	2750
857	1083
857	1313
857	1972
857	2322
857	2682
857	3586
857	3891
857	4433
857	4659
857	4716
858	1353
858	1586
858	1843
858	2112
858	3764
858	3869
858	4910
859	961
859	1250
859	2058
859	2276
859	2294
859	2395
859	2804
859	3476
859	3649
859	4623
859	4673
859	4894
859	4979
860	1036
860	1598
860	2012
860	2026
860	2315
860	2718
860	2814
860	2967
861	1450
861	1912
861	2070
861	2550
861	2630
861	3182
861	4597
861	4716
861	4850
862	1029
862	1357
862	2068
862	2391
862	2543
862	2752
862	2807
862	3047
862	3266
862	3733
862	4546
862	4554
863	1011
863	1672
863	3590
863	3853
864	921
864	1189
864	1330
864	1557
864	1636
864	2765
864	3421
864	3489
864	3601
864	3951
865	1897
865	2516
865	2668
865	3159
865	3187
865	3262
865	4107
866	1097
866	1330
866	1502
866	1825
866	1882
866	1957
866	3271
866	3577
867	2121
867	2548
867	2610
867	2649
867	3065
867	3083
867	3154
867	3569
867	3649
867	4121
867	4871
867	4877
867	4880
868	891
868	1416
868	1660
868	2122
868	2720
868	3836
868	4464
868	4789
869	924
869	2284
869	2570
869	3007
869	3244
869	3918
869	4077
869	4299
869	4610
870	930
870	1403
870	1478
870	1522
870	1602
870	1630
870	3747
871	1281
871	1855
871	2315
871	2575
871	3189
871	3539
871	3734
871	3884
871	4536
871	4908
872	975
872	1355
872	1675
872	2527
872	2569
872	3779
873	1335
873	1507
873	2470
873	2563
873	3069
873	3761
873	4091
873	4100
874	3053
874	3125
874	3386
874	3822
875	1355
875	2092
875	2610
875	2806
875	3479
875	3741
875	3781
875	3895
875	4104
875	4831
876	901
876	1689
876	1797
876	1982
876	2385
876	2903
876	3844
876	4496
876	4774
876	4782
876	4884
877	1327
877	1820
877	2490
877	2824
877	3136
877	3378
877	4600
878	1333
878	1490
878	1768
878	1806
878	2239
878	2571
878	2639
878	2808
878	2924
878	3793
879	1181
879	1772
879	2227
879	2301
879	2930
879	3905
879	4602
879	4806
880	1070
880	1188
880	1244
880	1266
880	1296
880	1410
880	1890
880	2146
880	2442
880	2736
880	3892
880	4785
881	2910
881	3758
881	4052
881	4169
881	4981
882	1746
882	1918
882	3604
882	4271
882	4726
883	1218
883	3388
883	4966
884	1081
884	1402
884	1519
884	2075
884	2716
884	3655
884	3994
884	4711
884	4810
884	4828
885	893
885	1340
885	1779
885	2008
885	4220
886	1073
886	1260
886	1267
886	1440
886	2770
886	3349
886	3575
886	3670
886	4076
886	4298
886	4419
886	4495
887	951
887	1037
887	2706
887	2717
887	2907
887	3298
887	3367
887	3375
887	4291
888	935
888	1878
888	2083
888	2274
888	3271
888	3669
888	4521
889	1020
889	1066
889	2609
889	3161
889	3604
889	4183
889	4234
889	4632
890	1093
890	1637
890	3426
890	3496
890	3983
891	1127
891	1191
891	1537
891	1544
891	1770
891	2169
891	2679
891	2927
891	2968
891	2974
891	3024
891	3434
891	3586
891	3944
891	3960
891	4589
891	4921
892	1469
892	1487
892	2231
892	2474
892	3888
892	4576
893	1220
893	2003
893	2918
893	3460
893	3765
893	4027
893	4265
894	1094
894	1720
894	1757
894	4027
894	4274
894	4324
894	4371
894	4627
894	4631
895	1141
895	2596
895	3136
895	3186
895	3854
895	4183
895	4467
895	4991
896	1649
896	2059
896	2295
896	2519
896	3055
896	3326
896	4420
896	4915
897	2485
897	3972
897	4094
897	4133
897	4687
898	1537
898	1622
898	2477
898	4162
898	4907
899	938
899	1069
899	1115
899	1302
899	1587
899	1714
900	1934
900	2318
900	2561
900	3491
900	3939
900	4387
900	4700
901	1628
901	1933
901	2207
901	2685
901	2839
901	3334
901	4172
901	4394
902	918
902	2041
902	3161
902	3329
902	3881
903	1018
903	1070
903	1466
903	1964
903	2543
903	2725
903	3290
904	1144
904	1249
904	1325
904	2017
904	2032
904	2155
904	2494
904	2723
904	4105
904	4521
904	4542
905	1636
905	2236
905	2331
905	3019
905	3137
905	3314
905	3548
906	1434
906	1700
906	1723
906	2352
906	3917
906	4162
906	4410
906	4866
906	4937
907	941
907	1123
907	3680
907	3862
907	3887
907	4160
907	4544
907	4787
907	4849
908	3215
908	3776
908	3852
908	3956
908	4091
909	1579
909	1817
909	2069
909	2109
909	2130
909	2394
909	2550
909	3570
909	4185
909	4248
909	4734
910	947
910	1736
910	1974
910	2548
910	3617
910	4704
910	4803
911	920
911	1574
911	1633
911	3812
911	4970
912	1024
912	1276
912	2118
912	2943
912	2949
912	3007
912	3029
913	2023
913	2122
913	2255
913	2382
913	2528
913	2736
913	2744
913	3458
913	4441
913	4452
913	4639
913	4783
913	4822
914	941
914	989
914	1169
914	1285
914	1873
914	2600
914	3991
914	4564
914	4868
914	4991
915	1065
915	3545
915	3882
915	4422
915	4567
916	1763
916	2452
916	3884
917	1439
917	2327
917	3016
917	3250
917	4747
917	4892
918	1083
918	1878
918	2224
918	2738
918	3925
918	4119
918	4192
918	4328
919	1117
919	1214
919	1267
919	2900
919	2902
919	2987
919	3787
919	3809
919	4339
919	4914
920	1627
920	1923
920	2166
920	2398
920	2948
920	3136
920	3364
921	1030
921	1296
921	1669
921	2711
921	2860
921	2974
921	2996
921	3224
921	3697
921	4989
922	1219
922	1389
922	1668
922	1736
922	2241
922	2706
922	4028
922	4379
922	4461
922	4868
923	1243
923	1575
923	1694
923	2045
923	3172
923	4020
923	4980
924	1054
924	1319
924	1759
924	1991
924	2122
924	2797
924	3387
924	4015
924	4552
925	1442
925	1616
925	2544
925	2601
925	2631
925	3539
925	3858
926	1099
926	1523
926	2281
926	2633
926	3008
926	3504
926	3981
926	4586
927	1066
927	1402
927	1465
927	1600
927	1856
927	2006
927	2264
927	2296
927	2730
927	3085
927	4032
927	4114
927	4423
927	4424
927	4565
928	1153
928	1610
928	1619
928	2298
928	2309
928	3642
928	3906
928	3914
928	4729
929	1255
929	1348
929	1671
929	1931
929	2182
929	2826
929	3644
929	3660
930	1221
930	1561
930	2789
930	3512
930	3947
930	4351
931	1986
931	2704
931	3116
931	3947
932	953
932	1247
932	1579
932	1672
932	2190
932	2499
932	2526
932	2603
932	2848
932	2939
932	3136
932	3330
932	3378
932	3790
932	4320
932	4613
933	2410
933	2492
933	2976
933	3839
933	4833
934	1043
934	1053
934	1344
934	1629
934	1960
934	2241
934	2471
934	3022
934	3268
934	4458
935	1574
935	1956
935	2595
935	3054
935	4483
935	4669
936	942
936	1210
936	1538
936	2505
936	2916
936	3126
936	3628
936	3749
936	3908
936	4616
937	1904
937	2165
937	2178
937	2536
937	2821
937	2955
937	2974
937	3140
937	3892
937	4351
937	4387
937	4929
938	1037
938	1299
938	2211
938	2323
938	2445
938	2770
938	3253
938	3402
938	4428
938	4954
939	1472
939	1747
939	2038
939	2092
939	2129
939	3096
939	4337
939	4855
940	1109
940	1535
940	1716
940	1873
940	2216
940	2306
940	2369
940	2459
940	2841
940	2856
940	3121
941	990
941	1733
941	2250
941	3257
941	3393
942	1137
942	1230
942	2054
942	2221
942	2907
942	3422
942	4084
943	1237
943	1350
943	2010
943	2604
943	2631
943	2971
943	3881
943	4392
943	4770
943	4825
944	1845
944	2581
944	3150
944	3649
944	4037
944	4380
945	1191
945	1366
945	1509
945	1838
945	2163
945	3141
945	4430
945	4716
945	4969
946	1398
946	2072
946	2462
946	3837
947	1500
947	1528
947	1637
947	4785
948	2770
948	4160
949	1159
949	1488
949	1666
949	1724
949	2608
949	2629
949	3017
949	3227
949	3332
949	4556
950	1207
950	1703
950	2527
950	3008
950	3308
950	3916
950	4770
951	1295
951	1706
951	1740
951	2150
951	3060
951	3245
951	4272
951	4288
951	4549
951	4585
952	1132
952	2187
952	2358
952	2556
952	3479
952	3510
952	4411
952	4513
953	2555
953	3676
953	3769
953	4076
954	1069
954	1298
954	1543
954	2633
954	2636
954	3127
954	3408
955	2158
955	3945
955	4079
955	4231
956	1775
956	1796
956	1861
956	2045
956	2949
956	2977
956	3063
956	3490
956	4042
956	4382
956	4703
956	4813
957	1082
957	1440
957	1768
957	1859
957	3773
957	3890
957	4252
958	1011
958	1126
958	1681
958	1905
958	3426
958	3752
958	3861
958	4440
959	968
959	1317
959	1983
959	2777
959	2844
959	3050
959	3276
959	3643
959	4313
960	1192
960	1420
960	2128
960	2203
960	2609
960	2903
960	3599
960	4103
961	1352
961	1452
961	2223
961	2430
961	2560
961	2697
961	3387
961	4558
961	4679
962	987
962	1060
962	2022
962	2835
962	3260
962	3420
962	3623
962	4705
962	4709
963	1033
963	1463
963	1633
963	2305
963	3199
963	3402
963	3652
963	3657
963	3719
963	4166
964	1217
964	1884
964	3431
964	4784
965	1328
965	1386
965	1825
965	2359
965	2685
965	4230
966	2695
966	3013
966	3424
966	3441
966	3732
966	4358
966	4791
966	4873
967	3937
968	1526
968	1546
968	1865
968	2075
968	2330
968	2336
968	2420
968	4739
969	1635
969	1656
969	1851
969	1919
969	2218
969	2269
969	2836
969	2903
969	3247
969	3258
969	4743
970	3153
971	1619
971	1752
971	1991
971	2326
971	2572
971	3606
971	4488
971	4656
972	1239
972	2426
972	3135
972	4379
972	4671
973	1085
973	2012
973	2862
973	3524
973	3665
973	3863
973	3992
973	4033
973	4353
974	1548
974	2531
974	3965
974	4029
974	4156
974	4654
974	4700
975	1184
975	1694
975	2631
975	3104
975	3851
976	994
976	1277
976	1305
976	2362
976	2830
976	4345
976	4772
977	1367
977	1382
977	3199
977	3445
977	4879
978	1095
978	1606
978	2629
978	3484
978	3863
979	1245
979	1451
979	1482
979	3511
979	4053
979	4388
979	4406
980	1517
980	1788
980	1926
980	2157
980	2331
980	3387
980	3398
980	4191
980	4413
980	4586
980	4986
981	1014
981	1514
981	2352
981	2422
981	3057
981	4109
981	4408
981	4864
982	3643
982	3753
982	4037
982	4725
983	1088
983	2027
983	3387
983	3872
983	4464
983	4499
983	4645
984	2740
984	3726
984	3962
985	1205
985	1732
985	2232
985	2250
985	2769
985	2930
985	4166
986	1139
986	1666
986	1702
986	1876
986	2075
986	2259
986	3033
986	3150
986	3334
986	4354
987	1610
987	3225
987	3598
987	3766
987	4045
988	1537
988	1807
988	2610
988	4345
988	4416
988	4451
989	1629
989	1955
989	2839
989	3235
989	3539
990	1528
990	1981
990	2926
991	1136
991	1382
991	1527
991	1794
991	1946
991	2144
991	3285
991	3528
992	2622
992	2806
992	2965
992	3654
992	3869
992	4699
992	4721
992	4760
993	1796
993	1960
993	2297
993	2921
993	3450
993	3932
993	4087
994	1001
994	1284
994	1467
994	1805
994	1838
994	2063
994	2613
994	2757
994	3118
994	3423
994	4015
994	4519
994	4855
995	2310
995	2568
995	3096
995	3857
995	4162
995	4369
995	4383
995	4750
996	1263
996	4739
996	4749
996	4932
997	2406
997	2517
997	2599
997	2722
997	3491
997	3858
997	4310
997	4556
998	1228
998	1342
998	1694
998	1777
998	3772
998	4167
998	4944
999	1928
999	2053
999	2296
999	2615
999	2699
999	3786
1000	1666
1000	2580
1000	3725
1000	4083
1000	4152
1000	4711
1001	1990
1001	3469
1001	3689
1002	1117
1002	1761
1002	2129
1002	2942
1002	3297
1002	4742
1002	4812
1002	4978
1003	1824
1003	3263
1003	3338
1003	3901
1003	4437
1003	4895
1004	1112
1004	1133
1004	1364
1004	1767
1004	3980
1005	1179
1005	2059
1005	3258
1005	3539
1005	3920
1005	4093
1005	4440
1005	4458
1005	4480
1005	4903
1006	1402
1006	2469
1006	2829
1006	3024
1006	3206
1006	4743
1006	4859
1007	1695
1007	1941
1007	1981
1007	2269
1007	3003
1007	3453
1007	3543
1007	3697
1007	3890
1007	3952
1007	3955
1007	4644
1008	1098
1008	1811
1008	2780
1008	3706
1008	3897
1008	4320
1009	1349
1009	1481
1009	1961
1009	2776
1009	2851
1009	3425
1009	3824
1009	4245
1009	4288
1009	4701
1010	1347
1010	1836
1010	2384
1010	2579
1010	3076
1010	3350
1010	3486
1010	3845
1010	4084
1010	4325
1010	4592
1011	1879
1011	2467
1011	2590
1011	3120
1011	3855
1011	4527
1011	4631
1011	4774
1011	4939
1012	2351
1012	3047
1012	3427
1012	3789
1012	3845
1013	1825
1013	2478
1013	3089
1013	3654
1013	4914
1014	1233
1014	1328
1014	1638
1014	1738
1014	2271
1014	2369
1014	4360
1015	1164
1015	2179
1015	3436
1015	4011
1015	4442
1015	4701
1015	4980
1016	1319
1016	1366
1016	1626
1016	1921
1016	2619
1016	2630
1016	3034
1016	3109
1016	3237
1016	3767
1017	1221
1017	1801
1017	2093
1017	2818
1017	3378
1017	4698
1018	1465
1018	1584
1018	2465
1018	2799
1018	2873
1018	3574
1018	3660
1018	3766
1018	3907
1018	4386
1019	1473
1019	1742
1019	2458
1019	2611
1019	3369
1019	3425
1019	4174
1020	1513
1020	1855
1020	1998
1020	2154
1020	2330
1020	2557
1020	2718
1020	3373
1020	4157
1020	4307
1021	1323
1021	1859
1021	2335
1021	2491
1021	3105
1021	3121
1021	3207
1021	3216
1021	3242
1021	3509
1021	3991
1022	1079
1022	1285
1022	1436
1022	1896
1022	2006
1022	2522
1022	2706
1022	2939
1022	3213
1022	4080
1022	4582
1022	4929
1023	1816
1023	2337
1023	3239
1023	3901
1023	3967
1023	4268
1024	1064
1024	1352
1024	1709
1024	2860
1024	2863
1024	4536
1024	4840
1025	1780
1025	2777
1025	3645
1025	4066
1025	4498
1026	1136
1026	1167
1026	1753
1026	2442
1026	4978
1027	1126
1027	1230
1027	1247
1027	1652
1027	2606
1027	2741
1027	3245
1027	3260
1027	3334
1027	3490
1027	3769
1027	4003
1027	4181
1027	4621
1028	1275
1028	1810
1028	2611
1028	3394
1028	3402
1028	3859
1029	1039
1029	1087
1029	1128
1029	1178
1029	1699
1029	2131
1029	2448
1029	3517
1029	4828
1029	4927
1030	1473
1030	1765
1030	1952
1030	2667
1030	2940
1030	3507
1030	3707
1030	3879
1031	1175
1031	2307
1031	2345
1031	2645
1031	3410
1031	3980
1031	4151
1031	4677
1032	1953
1032	3404
1032	4952
1033	1057
1033	1165
1033	1387
1033	1425
1033	1524
1033	2016
1033	2321
1033	2725
1033	2884
1033	3116
1033	4054
1033	4214
1033	4395
1034	1497
1034	1607
1034	1770
1034	2378
1034	2385
1034	2644
1034	3103
1034	3362
1034	4200
1035	2236
1035	3264
1035	3283
1035	4185
1035	4561
1035	4956
1036	1233
1036	1773
1036	2177
1036	2874
1036	3177
1036	3587
1036	3763
1036	3829
1036	3996
1036	4810
1036	4848
1036	4898
1037	1641
1037	2769
1037	2840
1037	3017
1037	4364
1038	1063
1038	1091
1038	1608
1038	1648
1038	2251
1038	2825
1038	3127
1038	3719
1038	3782
1038	4512
1039	1229
1039	1802
1039	1975
1039	2655
1039	3194
1039	3663
1040	1399
1040	2210
1040	2267
1040	2980
1040	3057
1040	3425
1041	1353
1041	2271
1041	2649
1041	2935
1041	3151
1041	3539
1041	4230
1041	4748
1041	4945
1042	1535
1042	1671
1042	1693
1042	1702
1042	1790
1042	1976
1042	2209
1042	2448
1042	3153
1042	3186
1042	3301
1043	3567
1043	3694
1043	3741
1043	3974
1043	4066
1043	4298
1043	4869
1043	4932
1044	1388
1044	1571
1044	2076
1044	2727
1044	3038
1044	3110
1044	3534
1044	4143
1044	4421
1044	4673
1044	4859
1045	1059
1045	1676
1045	1959
1045	1970
1045	4185
1045	4366
1046	1530
1046	2102
1046	3832
1046	3990
1046	4308
1046	4620
1047	1133
1047	1408
1047	3016
1047	3431
1047	3512
1047	3923
1047	4090
1047	4194
1047	4205
1047	4299
1047	4942
1048	1741
1048	2447
1048	2757
1048	3423
1048	3633
1048	4051
1048	4876
1049	1554
1049	1695
1049	2422
1049	2488
1049	2608
1049	2919
1049	4731
1050	1199
1050	1450
1050	1751
1050	1777
1050	3042
1050	3444
1050	4488
1051	1903
1051	2198
1051	4033
1051	4036
1052	1917
1052	1982
1052	2475
1052	2483
1052	3752
1052	4357
1052	4364
1052	4501
1052	4808
1053	1146
1053	1269
1053	1393
1053	1860
1053	2449
1053	2951
1053	3085
1053	3650
1053	4064
1053	4166
1053	4266
1054	1232
1054	1810
1054	1904
1054	3933
1055	1806
1055	1919
1055	3033
1055	3942
1055	4229
1055	4959
1056	1977
1056	2156
1056	2547
1056	3140
1056	3821
1056	4684
1057	1162
1057	1504
1057	1874
1057	2527
1057	2546
1057	3286
1057	3648
1057	4071
1057	4090
1057	4972
1058	1081
1058	1763
1058	1853
1058	2316
1058	2953
1058	2983
1058	3063
1058	3073
1059	1319
1059	1509
1059	1813
1059	2027
1059	2068
1059	2163
1059	2245
1059	2481
1059	2562
1059	2614
1059	2835
1059	3850
1059	4191
1059	4956
1060	1461
1060	2178
1060	3118
1060	3237
1060	3787
1061	1074
1061	1991
1061	2207
1061	2257
1061	2435
1061	2851
1061	2874
1061	2943
1061	2981
1061	3061
1061	3425
1061	4109
1061	4584
1062	1782
1062	2133
1062	3737
1063	1143
1063	1382
1063	1977
1063	2356
1063	3425
1064	1115
1064	1131
1064	1230
1064	2361
1064	2839
1064	3243
1064	3499
1064	4920
1065	2205
1065	2428
1065	3686
1065	3765
1065	4100
1065	4191
1065	4398
1065	4631
1066	1174
1066	1349
1066	1586
1066	2488
1066	3594
1067	1104
1067	2236
1067	2553
1067	2995
1067	3031
1067	3326
1067	4102
1068	1128
1068	1289
1068	1789
1068	4274
1069	1712
1069	1908
1069	2298
1069	2332
1069	2368
1069	2814
1069	2844
1069	2938
1069	3988
1069	4112
1069	4193
1069	4713
1070	1448
1070	3284
1070	3444
1071	1083
1071	1438
1071	1699
1071	1832
1071	2077
1071	3434
1071	3849
1071	3920
1071	4667
1072	1480
1072	3095
1072	4146
1072	4782
1073	1300
1073	1621
1073	1792
1073	2017
1073	2078
1073	3131
1073	4203
1074	1120
1074	1826
1074	2022
1074	2672
1074	2724
1074	3172
1075	1624
1075	3877
1075	4127
1075	4580
1076	1181
1076	1999
1076	2371
1076	2419
1076	2514
1076	4927
1077	1352
1077	1859
1078	1370
1078	1600
1078	2392
1078	2756
1078	2809
1078	2814
1078	2854
1078	3798
1078	3854
1079	2423
1079	2842
1079	4343
1079	4348
1079	4396
1079	4496
1079	4633
1079	4865
1080	1084
1080	1329
1080	1558
1080	1621
1080	1852
1080	2218
1080	2723
1080	3849
1080	3945
1080	4556
1081	1276
1081	2077
1081	3599
1081	4016
1081	4097
1081	4322
1081	4818
1082	1718
1082	1798
1082	2070
1082	2680
1082	2863
1082	3431
1082	3644
1083	1365
1083	1476
1083	2021
1083	2575
1083	3720
1083	4280
1083	4558
1083	4973
1084	2273
1084	2776
1084	2868
1084	3045
1084	3280
1084	3921
1084	4634
1085	1339
1085	1710
1085	2308
1085	2854
1085	4448
1085	4537
1086	1466
1086	1676
1086	2190
1086	2255
1086	2354
1086	2660
1086	3085
1086	3117
1086	3371
1086	4534
1086	4581
1086	4765
1087	1518
1087	1564
1087	2232
1087	2264
1087	2431
1087	2569
1087	4800
1088	1791
1088	2264
1088	2265
1088	2726
1088	4164
1089	1264
1089	2722
1089	2828
1089	3356
1089	4437
1090	1551
1090	1708
1090	2051
1090	2305
1090	2349
1090	2998
1090	3388
1090	4712
1091	2405
1091	3771
1092	1412
1092	1632
1092	1963
1092	2026
1092	2071
1092	2910
1092	2935
1092	3752
1092	4283
1092	4759
1092	4762
1093	1340
1093	1970
1093	2176
1093	4991
1094	1683
1094	2409
1094	2878
1094	4301
1095	2959
1095	4161
1096	3273
1096	3335
1096	4741
1097	1251
1097	1692
1097	2116
1097	2371
1097	2949
1097	3114
1097	3395
1097	3413
1097	4313
1098	1643
1098	2114
1098	2709
1098	2716
1098	2890
1099	1704
1099	1747
1099	1999
1099	2784
1099	2791
1099	3459
1099	3694
1099	3836
1099	4209
1099	4613
1099	4918
1100	1874
1100	2409
1100	2906
1100	3469
1100	4636
1100	4948
1101	1736
1101	2710
1101	2830
1101	3025
1101	3771
1101	4292
1101	4550
1101	4711
1101	4777
1102	1625
1102	3388
1102	4036
1102	4501
1102	4568
1102	4788
1103	1373
1103	2015
1103	2790
1103	3101
1104	1418
1104	1423
1104	1980
1104	2474
1104	2861
1104	3078
1104	3103
1104	3567
1104	3674
1104	3835
1104	4025
1104	4809
1105	3448
1105	3623
1105	4530
1105	4749
1105	4813
1106	1518
1106	1685
1106	2714
1106	2844
1106	2938
1106	3854
1106	3891
1106	4543
1107	1763
1107	2095
1107	2547
1107	3110
1107	3621
1107	4090
1108	2220
1108	2261
1108	2405
1108	2937
1108	3025
1108	3142
1108	4274
1108	4589
1108	4876
1109	1160
1109	1663
1109	1926
1109	2146
1109	2149
1109	3325
1109	4201
1109	4458
1109	4786
1109	4874
1109	4963
1110	1457
1110	2069
1110	2557
1110	2629
1110	3153
1110	3521
1110	4014
1110	4463
1111	1617
1111	2390
1111	3471
1111	3661
1111	3770
1111	3778
1111	4397
1112	1523
1112	3061
1112	3189
1112	3351
1112	4082
1112	4458
1112	4502
1112	4869
1113	1563
1113	2010
1113	2062
1113	2637
1113	2937
1113	3504
1113	3660
1113	4577
1113	4847
1113	4983
1114	2313
1114	2351
1114	2741
1114	3358
1114	4257
1114	4801
1115	1224
1115	1441
1115	2827
1115	2893
1115	3213
1115	3569
1115	3755
1115	3813
1115	3814
1115	4652
1115	4821
1115	4859
1116	2206
1116	2570
1116	3085
1116	3141
1117	2379
1117	2797
1117	3384
1117	3424
1118	1596
1118	1832
1118	1873
1118	2465
1118	2682
1118	3261
1118	3363
1118	4375
1118	4482
1118	4641
1118	4708
1118	4826
1119	1122
1119	1589
1119	2333
1119	3133
1119	3302
1119	4154
1119	4578
1119	4644
1119	4810
1120	1496
1120	2059
1120	2415
1120	2821
1120	3086
1120	3246
1120	3547
1120	3801
1120	4545
1120	4775
1121	2654
1121	3598
1121	3621
1121	3810
1121	3981
1121	4330
1121	4700
1121	4958
1122	1931
1122	2090
1122	2119
1122	2644
1122	2693
1122	4193
1122	4562
1122	4583
1122	4617
1123	1439
1123	1486
1123	1530
1123	1678
1123	2152
1123	2305
1123	2647
1123	2918
1123	3133
1123	3424
1123	3574
1123	3899
1123	4011
1124	1301
1124	1720
1124	2129
1124	3425
1124	3437
1124	3593
1124	3850
1124	4003
1124	4259
1124	4701
1125	2011
1125	3621
1125	4381
1126	1223
1126	1763
1126	1833
1126	1875
1126	1972
1126	2240
1126	2615
1126	2663
1126	2995
1126	3069
1126	4270
1127	1204
1127	1634
1127	2101
1127	2869
1127	3043
1127	3658
1127	4248
1127	4878
1128	2034
1128	2115
1128	2522
1128	2870
1128	3241
1128	3537
1128	3698
1128	4060
1128	4374
1128	4601
1128	4770
1128	4876
1129	1916
1129	1935
1129	2351
1129	3254
1129	3671
1129	3687
1129	3967
1129	4026
1129	4082
1129	4458
1129	4666
1130	1191
1130	2762
1130	3124
1130	3401
1130	4688
1130	4701
1130	4706
1130	4939
1131	1377
1131	1387
1131	1945
1131	2609
1131	2870
1131	2929
1131	3489
1131	3821
1131	4032
1131	4451
1131	4461
1131	4823
1131	4963
1132	1536
1132	2486
1132	3766
1132	4153
1132	4180
1132	4435
1132	4582
1132	4629
1133	1185
1133	1480
1133	2033
1133	4026
1133	4688
1134	1181
1134	1664
1134	2799
1134	3823
1134	4195
1135	1839
1135	2318
1135	3504
1136	1319
1136	2526
1136	2759
1136	3274
1137	1291
1137	1743
1137	1831
1137	2266
1137	2804
1137	3130
1137	3378
1137	3835
1137	4541
1137	4822
1137	4991
1138	1869
1138	2138
1138	2673
1138	3336
1138	4076
1138	4528
1138	4531
1138	4624
1138	4640
1138	4984
1139	1644
1139	2408
1139	2969
1139	3117
1139	3136
1139	3604
1139	3716
1139	4623
1140	1591
1140	2144
1140	3157
1140	3662
1140	4580
1141	1710
1141	2170
1141	2213
1141	2384
1141	2423
1141	2742
1141	3346
1141	3518
1141	3672
1141	4638
1142	2111
1142	2419
1142	3092
1142	3872
1142	3933
1142	3960
1142	4357
1143	1224
1143	1579
1143	1980
1143	2593
1143	2992
1143	3179
1143	3514
1143	3669
1143	4299
1143	4341
1143	4433
1144	1626
1144	2096
1144	2386
1144	2685
1144	3988
1144	4029
1144	4079
1144	4261
1144	4991
1145	2358
1145	2561
1145	3321
1145	3691
1145	4319
1146	1301
1146	1421
1146	1852
1146	2196
1146	2614
1146	3475
1146	3705
1146	4086
1146	4510
1147	2514
1147	2974
1147	3261
1147	4957
1148	1186
1148	2087
1148	4659
1148	4910
1149	1350
1149	1757
1149	2040
1149	2163
1149	2267
1149	3090
1149	3161
1149	3949
1149	4857
1150	1815
1150	2638
1150	3526
1150	4269
1150	4789
1150	4838
1151	1257
1151	1516
1151	1923
1151	2356
1151	2395
1151	2767
1151	3526
1151	3751
1151	4031
1151	4406
1151	4495
1151	4650
1152	1360
1152	2006
1152	2282
1152	3277
1152	3793
1152	3903
1152	4126
1153	1586
1153	1754
1153	1925
1153	2047
1153	2142
1153	2515
1153	3202
1153	3219
1153	4811
1153	4927
1154	2631
1154	4651
1154	4928
1155	1520
1155	1625
1155	1953
1155	2334
1155	2776
1155	2855
1155	3688
1155	3776
1155	4024
1155	4562
1155	4765
1155	4990
1156	1164
1156	1332
1156	1895
1156	2183
1156	2358
1156	2462
1156	2637
1156	2893
1156	3080
1156	3430
1156	3706
1156	4167
1157	1293
1157	3869
1157	4085
1157	4310
1158	1169
1158	2981
1158	3035
1158	3389
1159	1562
1159	2177
1159	3209
1159	3621
1159	3678
1159	4547
1160	1694
1160	1978
1160	2594
1160	4392
1161	1397
1161	2156
1161	2395
1161	2568
1161	2847
1161	2856
1161	4107
1162	1174
1162	2228
1162	2335
1162	3024
1162	3742
1162	3764
1162	4173
1162	4534
1162	4913
1163	1184
1163	1241
1163	1287
1163	1716
1163	2097
1163	2530
1163	3236
1163	3667
1163	4117
1163	4139
1163	4622
1163	4671
1163	4834
1164	1318
1164	1363
1164	1672
1164	1697
1164	2502
1164	2595
1164	2671
1164	2705
1164	3512
1164	3962
1164	4841
1164	4884
1164	4992
1165	1812
1165	3026
1165	4022
1165	4574
1165	4788
1166	1291
1166	1376
1166	1651
1166	1836
1166	1851
1166	2414
1166	2953
1166	3619
1167	1695
1167	2733
1167	3236
1167	3256
1167	4130
1167	4455
1167	4831
1168	1199
1168	2403
1168	2898
1168	2913
1168	3170
1168	4429
1169	1633
1169	2058
1169	2299
1169	2374
1169	3171
1169	3630
1169	3759
1169	3842
1169	4376
1169	4392
1169	4476
1169	4569
1170	1305
1170	1440
1170	1682
1170	1907
1170	3006
1170	3625
1170	3746
1170	4791
1171	1652
1171	2347
1171	2716
1171	3701
1171	4737
1172	1584
1172	2794
1172	3550
1172	3718
1172	3879
1172	4048
1172	4160
1172	4366
1172	4730
1172	4826
1173	1228
1173	1233
1173	1441
1173	1828
1173	1883
1173	1937
1173	2301
1173	3348
1173	4317
1173	4407
1173	4418
1173	4438
1173	4515
1173	4956
1174	1669
1174	2167
1174	2260
1174	2336
1174	2660
1174	2667
1174	3237
1174	3492
1174	3543
1174	4511
1174	4844
1175	1327
1175	1836
1175	2166
1175	4809
1175	4855
1175	4909
1176	1882
1176	2190
1176	3103
1176	3592
1176	3730
1176	3881
1176	4864
1177	1339
1177	1795
1177	2084
1177	2106
1177	2387
1177	3415
1177	4437
1177	4922
1178	1600
1178	1803
1178	2080
1178	3120
1178	3228
1178	4430
1178	4499
1179	1273
1179	1720
1179	1988
1179	2768
1179	2797
1179	3389
1179	3557
1179	3648
1179	3992
1179	4498
1179	4847
1180	2748
1180	3328
1180	3728
1180	4195
1180	4357
1180	4443
1180	4596
1181	1626
1181	3461
1181	4239
1181	4307
1181	4663
1182	1707
1182	1990
1182	2251
1182	2493
1182	3042
1182	3129
1182	3164
1182	3219
1182	3321
1182	3748
1183	1240
1183	1816
1183	2946
1183	3373
1183	3912
1183	4886
1183	4955
1184	1500
1184	1913
1184	2901
1184	2967
1184	3443
1184	4443
1185	1238
1185	1915
1185	2881
1185	4693
1186	1520
1186	1593
1186	1782
1186	2493
1186	2958
1186	4442
1187	1697
1187	1847
1187	1997
1187	2367
1187	2614
1187	2980
1187	3372
1187	4229
1187	4806
1188	1549
1188	1816
1188	2230
1188	2824
1188	3421
1188	4196
1188	4504
1188	4511
1188	4593
1189	1302
1189	1452
1189	2501
1189	2662
1189	2996
1189	3493
1189	3889
1189	4018
1189	4364
1189	4749
1190	1684
1190	2035
1190	2443
1190	3435
1190	3843
1190	4416
1190	4471
1190	4567
1190	4741
1190	4895
1191	3324
1192	1728
1192	1836
1192	2699
1192	2769
1192	3322
1192	4903
1192	4924
1193	1271
1193	1844
1193	2040
1193	2225
1193	2600
1193	3251
1193	4076
1193	4099
1194	1957
1194	2247
1194	2666
1194	3009
1194	3154
1194	3371
1194	3679
1194	4540
1194	4616
1195	1842
1195	2316
1195	2386
1195	2730
1195	3134
1195	4377
1196	1311
1196	1624
1196	2052
1196	2071
1196	2195
1196	2220
1196	2504
1196	2842
1196	2906
1196	3515
1196	3717
1196	3830
1196	4083
1196	4243
1196	4717
1196	4752
1196	4834
1197	1710
1197	1757
1197	1933
1197	1959
1197	2378
1197	2771
1197	3249
1197	3290
1197	3385
1197	3576
1197	3727
1197	4020
1198	1290
1198	2452
1198	2726
1198	3413
1198	4243
1198	4832
1198	4878
1199	1910
1199	2663
1199	2866
1199	2985
1199	3711
1199	3739
1199	4440
1199	4871
1200	2167
1200	2251
1200	2551
1200	3222
1200	4105
1200	4806
1201	1764
1201	1992
1201	2122
1201	4368
1202	1886
1202	1932
1202	2233
1202	2754
1202	2946
1202	3307
1202	3453
1202	3513
1202	4190
1202	4486
1203	1350
1203	1456
1203	1617
1203	2099
1203	2464
1203	3213
1203	4466
1204	1579
1204	2605
1204	2840
1204	3245
1204	3859
1204	4344
1204	4520
1205	1738
1205	2132
1205	2321
1205	2561
1205	2654
1205	2729
1205	4139
1205	4441
1205	4878
1206	1866
1206	2036
1206	2404
1206	2870
1206	3137
1206	3236
1206	3362
1206	4593
1207	1519
1207	1980
1207	2298
1207	2649
1207	4176
1208	1657
1208	1686
1208	3748
1208	3903
1208	4364
1209	1932
1209	2208
1209	3391
1209	3488
1209	3800
1209	4304
1210	1904
1210	2837
1210	3041
1210	3104
1210	3361
1210	3494
1210	4044
1210	4344
1211	2467
1211	3146
1211	3722
1211	3904
1211	4228
1211	4562
1211	4702
1212	1594
1212	1943
1212	3105
1212	3166
1212	3668
1212	3681
1212	4694
1213	1349
1213	2078
1213	3733
1213	4077
1214	2665
1214	3305
1214	4092
1214	4198
1215	1329
1215	2459
1215	2711
1215	3175
1215	3973
1215	4121
1215	4513
1216	1558
1216	1670
1216	1753
1216	1953
1216	1985
1216	2334
1216	2950
1216	3182
1216	4780
1217	1231
1217	1307
1217	2040
1217	2069
1217	2557
1217	2668
1217	3311
1217	3643
1218	2326
1218	2877
1218	3034
1218	4000
1218	4213
1218	4216
1218	4475
1218	4839
1219	1352
1219	1714
1219	2291
1219	4396
1219	4648
1220	2541
1220	2758
1220	2927
1220	3092
1220	3189
1220	3396
1220	3666
1220	4074
1221	1412
1221	1558
1221	1948
1221	2059
1221	2691
1221	2905
1221	3082
1221	3517
1221	3563
1221	4073
1221	4442
1221	4900
1221	4937
1222	1429
1222	1927
1222	1951
1222	2099
1222	2566
1222	3651
1222	3654
1222	4126
1222	4405
1222	4412
1222	4759
1223	1511
1223	1936
1223	2277
1223	4324
1223	4839
1224	1283
1224	1646
1224	3779
1224	3963
1224	4104
1225	1811
1225	2070
1225	3252
1225	3432
1225	3967
1226	2153
1226	2438
1226	2818
1226	2872
1226	2907
1226	3265
1226	3304
1226	4276
1226	4626
1226	4880
1226	4987
1227	1451
1227	1617
1227	2025
1227	2257
1227	2982
1227	3186
1227	3276
1227	3442
1227	3594
1227	3735
1227	4218
1228	1366
1228	1714
1228	1833
1228	1961
1228	2499
1228	2674
1228	2807
1228	2863
1228	3106
1228	3272
1228	3806
1228	4342
1228	4477
1228	4630
1229	1353
1229	1992
1229	2217
1229	2633
1229	4968
1230	1318
1230	1654
1230	1721
1230	2196
1230	3563
1230	3787
1230	4522
1230	4774
1231	1484
1231	1495
1231	1526
1231	2218
1231	2335
1231	2384
1231	2993
1231	3308
1231	3914
1231	3989
1231	4237
1231	4385
1231	4433
1232	1294
1232	1531
1232	1856
1232	2038
1232	2201
1232	2489
1232	4406
1233	2283
1233	2572
1233	2842
1233	3531
1233	3732
1233	4443
1234	1592
1234	1673
1234	2286
1234	2868
1234	3007
1234	3015
1234	3172
1235	1243
1235	2112
1235	2679
1235	3415
1235	3939
1235	4460
1235	4831
1235	4983
1236	1460
1236	2096
1236	2259
1236	3949
1236	4063
1236	4652
1236	4692
1236	4815
1237	1347
1237	1557
1237	1868
1237	3137
1237	3618
1237	4479
1237	4595
1238	1286
1238	1469
1238	1584
1238	1920
1238	2669
1238	2837
1238	2855
1238	3138
1238	3450
1238	3554
1238	3916
1238	4688
1239	1447
1239	2009
1239	2379
1239	2453
1239	4513
1240	1293
1240	2411
1240	2557
1240	3189
1240	4002
1240	4227
1241	1930
1241	2255
1241	2276
1241	2442
1241	4702
1242	1324
1242	4682
1242	4891
1243	1261
1243	3094
1243	4435
1243	4585
1243	4640
1244	1408
1244	1468
1244	2341
1244	3359
1244	3453
1244	3820
1244	4162
1245	1360
1245	1665
1245	1733
1245	3400
1245	4406
1246	1254
1246	1783
1246	3035
1246	3408
1246	3841
1247	4033
1247	4152
1247	4494
1247	4594
1248	1266
1248	1472
1248	1951
1248	2812
1248	3098
1248	3533
1248	3991
1249	1668
1249	2162
1249	2318
1249	2462
1249	2797
1249	3943
1249	3998
1249	4632
1249	4837
1250	1385
1250	2006
1250	2267
1250	2646
1250	3467
1251	1395
1251	1628
1251	2327
1251	3438
1251	3899
1251	4921
1252	2928
1252	3461
1252	3830
1252	3837
1252	4403
1252	4628
1253	1557
1253	3371
1253	4559
1253	4579
1254	1558
1254	3645
1254	4987
1255	1263
1255	1266
1255	2067
1255	2105
1255	2142
1255	2924
1255	3277
1256	1257
1256	1287
1256	1611
1256	2178
1256	2221
1256	3060
1256	3683
1256	3845
1256	4574
1257	1449
1257	1832
1257	2918
1257	4125
1257	4572
1257	4843
1258	1710
1258	1987
1258	2345
1258	4165
1258	4249
1259	1787
1259	4262
1259	4894
1260	2068
1260	3980
1260	4122
1260	4265
1260	4912
1261	2147
1261	2329
1261	3393
1261	3544
1261	4600
1261	4647
1261	4968
1262	1559
1262	2094
1262	2703
1262	2872
1262	3844
1262	4232
1262	4388
1262	4473
1262	4545
1262	4902
1263	1507
1263	1728
1263	1785
1263	2073
1263	2091
1263	2570
1263	2697
1263	2879
1263	3724
1263	3943
1263	4572
1263	4857
1263	4955
1264	1334
1264	1584
1264	1857
1264	1985
1264	2152
1264	2193
1264	2878
1264	2901
1264	2917
1264	3072
1264	3333
1264	3405
1264	3929
1264	4392
1264	4637
1265	1671
1265	1746
1265	1845
1265	2609
1265	3076
1265	3591
1265	4020
1265	4512
1266	1415
1266	1463
1266	2424
1266	2439
1266	3558
1266	3581
1266	3680
1266	4857
1267	3455
1267	3609
1267	3678
1267	4418
1268	2716
1268	2778
1268	2975
1268	2976
1268	3122
1268	3146
1268	3422
1268	4488
1268	4730
1268	4851
1268	4970
1269	1545
1269	1774
1269	2020
1269	2300
1269	2725
1269	3002
1269	3962
1269	4525
1270	1588
1270	2225
1270	2433
1270	3212
1270	3510
1270	3515
1270	4217
1270	4633
1270	4799
1271	1636
1271	3114
1271	3243
1271	3381
1271	3924
1271	4110
1271	4171
1272	3099
1272	3469
1273	1279
1273	1768
1273	2040
1273	3045
1273	3357
1274	1684
1274	2276
1274	2316
1274	2429
1274	3520
1274	4088
1274	4266
1275	1291
1275	2324
1275	2513
1275	3521
1275	3601
1275	3768
1275	4639
1275	4892
1276	1549
1276	3266
1276	3790
1276	4264
1276	4613
1276	4789
1277	1434
1277	1509
1277	3296
1277	4082
1277	4320
1277	4646
1278	1533
1278	3176
1278	3301
1278	3435
1278	3770
1279	2035
1279	2444
1279	2717
1279	3191
1279	3266
1279	4730
1280	1353
1280	1691
1280	3752
1280	4317
1280	4426
1281	1493
1281	1684
1281	2574
1281	2822
1281	2835
1281	4330
1281	4385
1281	4975
1282	2027
1282	2596
1282	2790
1282	3430
1282	4210
1282	4271
1282	4341
1282	4372
1282	4805
1283	1454
1283	1550
1283	2229
1283	2280
1283	3721
1283	4542
1284	1580
1284	2298
1284	2494
1284	2648
1284	2793
1284	3163
1284	3364
1284	4483
1285	1921
1285	2269
1285	2754
1285	3696
1285	4011
1285	4652
1286	1486
1286	1551
1286	1634
1286	1688
1286	1919
1286	2974
1286	3526
1287	2183
1287	2430
1287	3017
1287	3821
1287	4440
1288	1561
1288	2138
1288	2343
1288	2604
1288	2708
1288	2727
1288	3901
1288	3915
1288	4723
1289	1463
1289	1811
1289	3402
1289	4619
1290	1481
1290	2219
1290	2609
1290	3012
1290	3878
1290	4796
1291	1643
1291	2212
1291	3241
1291	3743
1291	3992
1291	4490
1291	4627
1292	1962
1292	2617
1292	2814
1292	3143
1292	3495
1292	4171
1292	4836
1293	1520
1293	1638
1293	1936
1293	2591
1293	2720
1293	2785
1293	2913
1293	3020
1293	4179
1293	4902
1293	4931
1294	1436
1294	2193
1294	3922
1295	3321
1295	3682
1295	4432
1295	4612
1295	4683
1296	1518
1296	1599
1296	3199
1296	3958
1296	4845
1297	1527
1297	1994
1297	2186
1297	2225
1297	3117
1297	3439
1297	3739
1297	3935
1297	4184
1298	1899
1298	2349
1298	2569
1298	3522
1298	4431
1298	4542
1298	4638
1298	4732
1299	1560
1299	1719
1299	1986
1299	2162
1299	2704
1299	2758
1299	3557
1299	3887
1299	4142
1299	4162
1299	4436
1300	2149
1300	2325
1300	2351
1300	2423
1300	2685
1300	2766
1300	2819
1300	3350
1300	3988
1300	4299
1300	4400
1301	1359
1301	2741
1301	2757
1301	3944
1301	4993
1302	1306
1302	2042
1302	2946
1302	3053
1302	3074
1302	3438
1302	3633
1302	3884
1302	4090
1302	4241
1303	1463
1303	1897
1303	2239
1303	3027
1303	3193
1303	4889
1304	1430
1304	2437
1304	2686
1304	3684
1304	3885
1304	4015
1304	4641
1304	4892
1305	1938
1305	2323
1305	3857
1305	4427
1306	1667
1306	1761
1306	2392
1306	2758
1306	2903
1306	3832
1306	4253
1306	4988
1307	2155
1307	2555
1307	3021
1307	3949
1308	2783
1308	2964
1308	3518
1308	4141
1308	4407
1309	1319
1309	3997
1309	4408
1309	4638
1309	4987
1310	2667
1310	2858
1310	3120
1310	3587
1310	4298
1311	1434
1311	1559
1311	1597
1311	1722
1311	1736
1311	1813
1311	2485
1311	2862
1311	4066
1311	4396
1312	1383
1312	1827
1312	1850
1312	3199
1312	3557
1312	4179
1312	4471
1312	4581
1313	1375
1313	2847
1313	3260
1313	3393
1313	3889
1314	2414
1314	3219
1314	4428
1315	1977
1315	2550
1315	2618
1315	3025
1315	3030
1315	3454
1315	3591
1315	3648
1315	4326
1315	4561
1315	4681
1316	1617
1316	1914
1316	1972
1316	2464
1316	3839
1316	4046
1316	4508
1316	4990
1317	1461
1317	2075
1317	3175
1317	4584
1318	1393
1318	1598
1318	2049
1318	2499
1318	2631
1318	2991
1318	3353
1318	3784
1318	4164
1318	4593
1319	1512
1319	1541
1319	1564
1319	1686
1319	2812
1319	3096
1319	3386
1319	4515
1319	4578
1319	4604
1319	4897
1320	1391
1320	1846
1320	2302
1320	2471
1320	3330
1320	4555
1320	4651
1320	4908
1321	1333
1321	1901
1321	2713
1321	2832
1321	3108
1321	3194
1322	1932
1322	2276
1322	2314
1322	2430
1322	2858
1322	3968
1322	4121
1322	4135
1322	4153
1322	4512
1322	4678
1323	2805
1323	2814
1323	3051
1323	4455
1323	4896
1323	4949
1324	1518
1324	1763
1324	2278
1324	3311
1324	4077
1324	4469
1325	1990
1325	3367
1325	3725
1325	4104
1325	4222
1326	1662
1326	1967
1327	1456
1327	3671
1327	3817
1327	4066
1327	4215
1327	4759
1327	4970
1328	1412
1328	2208
1328	2476
1328	2650
1328	2888
1328	3417
1328	3620
1328	3662
1328	3712
1328	4447
1329	2559
1329	3665
1329	3971
1329	4057
1329	4330
1329	4678
1329	4694
1330	1652
1330	1658
1330	1751
1330	1996
1330	3291
1330	4240
1330	4675
1330	4735
1331	1346
1331	1789
1331	2428
1331	2506
1331	2732
1331	3066
1331	3166
1331	3756
1331	3805
1331	3951
1331	3952
1331	4414
1332	1347
1332	1360
1332	1605
1332	2038
1332	2537
1332	2720
1332	3071
1332	3782
1333	1865
1333	2147
1333	3173
1333	3217
1333	3402
1333	4201
1333	4408
1333	4784
1333	4946
1334	1552
1334	1608
1334	2422
1334	3449
1334	3624
1334	3659
1334	3927
1335	1846
1335	2810
1335	2839
1335	2972
1335	3447
1335	3815
1335	4095
1335	4976
1336	1412
1336	1429
1336	1846
1336	2615
1336	3258
1336	3438
1336	4799
1337	1498
1337	1574
1337	2268
1337	2484
1337	2751
1337	3294
1337	3688
1337	3740
1337	4012
1337	4282
1337	4322
1337	4470
1337	4802
1338	3824
1339	2152
1339	2554
1339	3364
1339	4179
1340	1559
1340	1627
1340	1968
1340	2672
1340	2718
1340	2765
1340	3455
1340	3770
1341	1755
1341	2189
1341	3349
1341	4040
1341	4458
1341	4560
1342	2078
1342	2300
1342	2533
1342	2925
1342	2930
1342	3420
1342	4592
1342	4682
1342	4858
1343	1822
1343	2491
1343	2599
1343	2990
1343	3333
1343	3766
1343	3802
1343	3990
1343	4097
1343	4683
1344	1752
1344	2123
1344	2490
1344	3120
1344	3180
1344	3361
1344	4046
1344	4845
1345	1540
1345	2723
1345	2750
1345	3528
1345	3689
1345	4210
1345	4257
1345	4535
1346	2394
1346	3163
1346	3420
1346	4179
1346	4218
1346	4774
1347	1356
1347	2012
1347	2075
1347	2278
1347	2452
1347	2511
1347	3126
1347	3155
1347	3451
1347	3539
1347	3599
1347	4716
1348	1761
1348	3158
1348	4107
1348	4344
1348	4894
1348	4934
1349	2040
1349	2389
1349	2483
1349	2720
1349	3191
1349	3817
1350	1420
1350	2104
1350	2672
1350	3439
1350	3534
1350	4300
1351	1425
1351	2127
1351	2759
1351	2932
1351	3035
1351	3406
1351	3487
1351	3745
1351	4320
1351	4721
1352	1420
1352	2188
1352	2214
1352	2579
1352	2899
1352	2913
1352	3703
1352	4081
1352	4143
1352	4152
1352	4299
1352	4342
1353	1673
1353	2173
1353	2746
1353	3082
1353	3261
1353	3450
1354	1598
1354	2737
1354	3975
1354	4080
1354	4544
1354	4955
1354	4962
1355	2426
1355	3628
1355	3963
1355	4514
1356	3360
1356	4380
1357	1399
1357	1568
1357	1738
1357	2141
1357	2307
1357	2394
1357	3686
1357	4099
1357	4253
1357	4734
1358	1675
1358	2111
1358	2824
1358	3178
1358	3236
1358	3531
1358	3568
1358	4085
1358	4698
1359	2608
1359	2898
1359	3459
1359	3463
1359	3683
1359	3791
1359	3928
1359	4048
1359	4890
1359	4912
1360	3209
1360	4453
1361	1900
1361	2504
1361	2661
1361	3566
1361	4597
1361	4723
1361	4789
1361	4940
1362	1572
1362	1864
1362	2604
1362	3917
1362	3989
1363	2591
1363	3341
1363	3656
1363	4863
1364	1519
1364	1814
1364	2594
1364	2694
1365	1902
1365	3607
1365	4376
1365	4630
1365	4684
1365	4889
1365	4965
1366	1826
1366	3020
1366	3129
1366	4046
1366	4547
1366	4648
1366	4924
1367	1943
1367	2667
1367	2953
1367	3763
1367	4198
1367	4722
1367	4836
1368	1571
1368	2149
1368	2294
1368	2468
1368	2698
1368	2849
1368	3553
1369	3107
1369	4258
1369	4327
1369	4337
1370	1445
1370	1608
1370	1963
1370	2034
1370	3006
1370	3380
1370	3411
1370	3494
1370	4047
1371	2517
1371	3178
1371	3632
1371	3714
1371	4121
1371	4202
1372	1919
1372	2147
1372	2761
1372	2914
1372	4116
1372	4217
1372	4470
1372	4692
1372	4770
1373	3070
1373	3647
1374	2088
1374	2124
1374	2318
1374	2908
1374	2989
1374	4471
1374	4695
1375	1692
1375	2377
1375	2792
1375	2955
1375	3010
1375	3226
1375	3790
1375	4153
1375	4378
1375	4457
1376	1516
1376	1761
1376	2222
1376	2309
1376	2331
1376	2918
1376	3547
1376	3588
1376	4157
1376	4789
1377	1868
1377	3933
1377	4014
1377	4417
1377	4543
1378	1391
1378	2355
1378	2879
1378	3142
1378	3433
1378	3770
1378	4577
1379	2666
1379	2982
1380	1903
1380	2691
1380	3127
1380	3696
1380	4884
1380	4949
1381	1654
1381	1821
1381	3386
1381	3803
1381	4766
1382	2116
1382	2599
1382	2994
1382	3546
1382	3620
1383	1754
1383	3362
1384	1779
1384	1946
1384	2000
1384	2591
1384	2718
1384	2939
1384	3317
1384	4179
1384	4456
1385	2713
1385	3344
1385	3805
1385	4801
1385	4899
1386	2093
1386	2455
1387	2019
1387	2302
1387	3216
1387	3832
1387	4046
1387	4328
1388	1513
1388	1808
1388	1914
1388	1996
1388	2130
1388	2710
1388	3758
1388	4305
1388	4581
1388	4730
1389	2027
1389	2066
1389	2319
1389	3236
1389	4640
1389	4774
1390	1504
1390	1531
1390	1602
1390	1743
1390	2233
1390	4712
1391	2048
1391	2175
1391	2242
1391	2590
1391	3038
1391	3853
1391	4080
1391	4607
1391	4819
1392	1632
1392	1681
1392	3607
1392	3746
1392	3790
1392	3926
1392	3929
1392	4430
1392	4556
1392	4987
1393	1992
1393	3068
1393	4217
1393	4340
1393	4977
1394	1771
1394	2219
1394	2380
1394	2424
1394	2812
1394	2980
1394	3051
1394	3318
1394	4779
1394	4898
1395	1609
1395	1631
1395	1843
1395	2205
1395	2215
1395	2374
1395	2432
1395	2668
1395	4127
1395	4791
1395	4917
1396	1507
1396	2299
1396	3001
1396	3166
1396	4317
1397	1624
1397	1690
1397	2662
1397	3241
1397	3373
1397	3525
1397	4331
1398	2084
1398	2377
1398	3006
1398	3208
1398	3331
1398	3815
1398	4348
1398	4650
1399	2763
1399	3860
1399	4314
1399	4496
1400	1622
1400	1766
1400	1991
1400	2626
1400	3966
1400	4239
1400	4902
1401	2165
1401	2171
1401	2227
1401	2830
1401	3855
1401	4421
1401	4742
1402	1610
1402	1925
1402	2540
1402	2697
1402	3379
1402	4752
1403	1608
1403	3048
1403	3244
1404	1805
1404	3192
1404	3584
1404	3825
1404	4451
1404	4468
1405	2463
1405	3673
1406	1514
1406	3258
1406	3512
1406	3681
1406	3815
1406	4289
1406	4772
1407	1676
1407	2068
1407	2096
1407	3075
1407	3645
1407	3865
1407	4050
1407	4091
1407	4276
1407	4311
1407	4319
1407	4414
1407	4769
1408	1556
1408	1971
1408	2000
1408	2447
1408	4260
1408	4601
1409	2496
1409	2760
1409	3045
1409	4529
1410	1662
1410	2186
1410	2645
1410	2991
1410	3817
1410	3877
1410	4921
1410	4937
1411	1946
1411	2213
1411	2357
1411	2873
1411	3030
1411	3093
1411	3424
1411	3434
1411	4098
1411	4107
1412	1744
1412	1869
1412	2679
1412	3015
1412	3647
1412	4752
1413	1449
1413	1710
1413	2325
1413	3875
1413	4493
1413	4903
1413	4986
1414	1504
1414	1674
1414	1973
1414	2339
1414	2345
1414	3590
1414	3599
1415	1630
1415	1808
1415	1932
1415	2130
1415	2971
1415	4025
1415	4806
1416	1488
1416	2096
1416	2176
1416	2529
1416	2894
1416	3494
1416	4299
1416	4488
1416	4628
1416	4960
1417	1423
1417	1482
1417	2075
1417	2565
1417	3808
1417	4378
1417	4562
1418	2091
1418	2586
1418	4096
1419	1620
1419	1658
1419	1874
1419	2348
1419	4491
1419	4867
1420	2696
1420	2727
1420	2813
1420	2974
1420	3058
1420	3252
1420	3559
1420	3889
1420	4306
1421	1913
1421	2258
1421	2719
1421	3203
1421	3957
1421	4456
1421	4547
1421	4872
1422	1954
1422	1998
1422	2186
1422	3097
1422	3425
1422	3691
1422	4327
1422	4388
1422	4932
1423	2032
1423	2055
1423	2237
1423	2305
1423	2502
1423	3052
1423	4154
1423	4223
1423	4897
1424	1427
1424	1541
1424	2745
1424	2998
1424	4160
1424	4447
1424	4903
1425	2183
1425	3013
1425	3057
1425	3257
1425	3750
1425	3779
1425	4935
1426	1439
1426	1630
1426	2270
1426	2304
1426	2436
1426	2810
1426	3406
1426	3664
1426	4299
1426	4440
1426	4632
1426	4927
1426	4932
1427	1930
1427	2240
1427	2362
1427	3188
1427	3972
1427	4087
1427	4364
1428	2059
1428	3220
1428	3379
1428	3428
1428	4170
1428	4510
1429	1724
1429	2217
1429	2651
1429	3709
1429	3877
1429	4752
1430	1649
1430	1659
1430	2157
1430	2415
1430	2952
1430	3776
1430	3983
1430	3988
1430	4716
1431	1793
1431	2022
1431	2283
1431	3648
1431	3873
1432	1575
1432	1935
1432	2732
1432	3434
1432	3578
1432	4785
1433	1456
1433	2504
1433	3436
1433	3958
1433	4077
1433	4099
1433	4816
1434	1445
1434	1914
1434	2578
1434	3602
1435	1458
1435	3167
1435	4549
1435	4553
1435	4697
1435	4929
1436	2113
1436	2178
1436	2646
1436	2760
1436	3087
1436	3167
1436	3437
1436	3645
1436	4142
1436	4954
1437	1755
1437	3774
1437	4008
1437	4683
1437	4963
1438	1495
1438	2257
1438	2994
1438	3503
1438	3579
1438	3782
1439	2009
1439	2094
1439	2480
1439	2743
1439	2790
1439	2913
1439	3073
1439	3160
1439	3421
1439	3485
1439	4569
1439	4753
1440	2187
1440	2640
1440	3753
1440	4183
1440	4307
1440	4905
1440	4921
1441	2116
1441	2529
1441	3693
1441	3775
1441	4003
1441	4652
1441	4789
1442	2370
1442	2667
1442	3071
1442	3306
1442	3749
1442	3983
1442	4227
1442	4350
1442	4362
1442	4511
1442	4681
1443	1810
1443	3739
1443	4128
1443	4712
1444	2015
1444	2153
1444	2481
1444	2584
1444	2635
1444	2698
1444	2772
1444	2784
1444	2996
1444	3528
1444	3951
1444	4026
1444	4685
1445	2373
1445	2396
1445	3279
1445	3778
1446	1493
1446	1960
1446	1995
1446	3991
1446	4487
1446	4580
1446	4693
1446	4940
1446	4945
1447	1806
1447	2737
1447	3107
1447	3145
1447	3270
1447	3371
1447	4572
1447	4708
1447	4894
1448	2180
1448	2725
1448	3071
1448	3319
1448	4145
1448	4254
1449	2622
1449	2705
1449	3108
1449	4040
1449	4147
1449	4947
1450	1458
1450	1838
1450	2327
1450	2406
1450	3816
1450	3976
1450	4071
1451	1708
1451	2261
1451	2455
1451	3491
1451	3537
1451	3681
1451	3690
1451	4236
1452	1453
1452	1869
1452	1888
1452	2398
1452	2456
1452	2972
1452	3756
1452	4153
1453	2378
1453	2703
1453	2994
1453	3352
1453	3568
1454	1841
1454	1988
1454	2371
1454	2905
1454	3113
1454	3155
1454	3425
1454	3433
1454	3452
1454	4121
1454	4569
1455	2007
1455	2162
1455	2437
1455	2552
1455	3052
1455	3651
1455	4805
1455	4952
1456	1557
1456	2588
1456	3040
1456	4114
1456	4790
1457	1479
1457	2266
1457	2536
1458	1965
1458	2047
1458	2055
1458	2144
1458	2431
1458	2500
1458	3996
1459	1808
1459	2325
1459	2365
1459	3295
1459	3871
1459	4093
1459	4445
1459	4481
1459	4501
1459	4851
1459	4939
1460	2663
1460	2700
1460	2905
1460	3186
1460	3542
1460	3588
1460	4023
1460	4527
1460	4709
1461	1996
1461	2456
1461	2462
1461	2519
1461	2616
1461	3272
1461	4737
1462	2100
1462	2260
1462	2882
1462	4175
1463	4751
1463	4842
1464	1650
1464	1657
1464	2453
1464	2495
1464	3200
1464	3937
1464	4767
1465	1675
1465	2082
1465	2598
1465	3437
1465	4453
1465	4841
1465	4948
1466	2508
1466	2599
1466	2658
1466	2975
1466	4097
1466	4210
1467	1531
1467	1545
1467	1906
1467	2811
1467	2827
1467	3291
1467	3370
1467	3740
1467	4290
1467	4438
1468	1603
1468	2868
1468	3349
1468	3669
1468	4030
1468	4037
1468	4399
1469	1635
1469	1792
1469	2203
1469	2403
1469	2976
1469	3261
1469	3489
1469	4957
1470	1668
1470	1783
1470	2241
1470	2421
1470	2967
1470	3162
1470	3380
1470	3562
1470	4818
1471	1572
1471	2980
1471	3473
1471	3832
1471	3962
1471	4322
1472	2117
1472	3493
1472	3787
1472	4106
1472	4265
1472	4325
1472	4569
1473	2394
1473	2734
1473	2764
1473	3291
1473	3628
1473	4041
1473	4342
1473	4348
1473	4427
1473	4905
1474	2629
1474	3007
1474	4281
1475	3219
1475	3784
1475	4769
1475	4990
1476	2704
1476	2749
1476	2759
1476	4075
1476	4450
1476	4725
1476	4928
1477	2040
1477	2622
1477	3350
1477	3419
1477	3697
1477	4109
1477	4496
1477	4545
1478	2052
1478	2145
1478	2301
1478	2403
1478	2742
1478	4012
1478	4595
1478	4736
1478	4839
1479	1521
1479	2410
1479	2428
1479	2584
1479	3079
1479	3302
1479	3828
1479	3888
1479	4547
1479	4558
1479	4625
1479	4655
1480	1524
1480	2182
1480	2472
1480	2648
1480	3159
1480	3525
1480	4340
1480	4469
1480	4506
1480	4612
1480	4614
1481	1534
1481	1780
1481	2365
1481	2455
1481	4206
1481	4356
1481	4393
1481	4582
1482	1910
1482	2083
1482	2419
1482	2679
1482	3944
1482	4403
1482	4988
1483	1592
1483	1713
1483	3473
1483	3480
1483	4441
1484	2277
1484	3404
1484	3739
1484	4394
1484	4768
1485	2195
1485	2354
1485	2436
1485	2857
1485	3702
1485	4002
1485	4236
1485	4953
1486	3705
1486	4366
1486	4514
1487	2135
1487	4820
1488	2184
1488	2685
1488	3540
1489	1713
1489	1816
1489	2681
1489	3968
1489	4391
1489	4487
1489	4624
1489	4809
1490	1737
1490	1916
1490	1961
1490	2165
1490	3368
1490	3371
1490	3953
1490	4079
1490	4115
1490	4148
1491	3561
1491	4016
1491	4148
1491	4155
1491	4874
1492	2630
1492	2744
1492	3329
1492	3592
1492	4055
1492	4752
1493	1906
1493	1939
1493	2812
1493	2924
1493	3502
1493	3579
1493	3631
1493	4618
1494	1878
1494	3078
1494	3872
1494	4642
1494	4935
1495	2358
1495	2654
1495	3378
1495	3662
1495	4114
1495	4157
1495	4162
1495	4176
1495	4268
1497	1602
1497	1871
1497	2101
1497	2275
1497	2472
1497	2684
1497	2796
1497	2825
1497	3158
1497	4130
1498	1713
1498	1855
1498	2388
1498	2892
1498	2943
1498	3184
1498	3374
1498	3599
1498	3849
1498	3937
1498	4150
1498	4640
1499	2957
1499	3060
1499	3348
1499	3628
1499	4297
1499	4314
1499	4598
1500	2058
1500	2387
1500	2508
1500	2637
1500	3394
1500	3738
1500	4102
1501	1515
1501	1708
1501	1829
1501	2691
1501	4132
1501	4198
1501	4981
1502	4893
1503	1771
1503	1967
1503	2297
1503	2420
1503	2440
1503	2812
1503	2896
1503	3544
1503	3713
1503	4381
1503	4418
1503	4420
1503	4810
1504	1806
1504	2722
1504	3068
1504	3662
1504	4285
1505	1811
1505	1821
1505	2669
1505	2869
1505	4257
1505	4425
1505	4520
1505	4575
1505	4650
1505	4830
1506	1579
1506	4070
1506	4452
1506	4494
1506	4526
1507	1662
1507	1890
1507	1935
1507	2096
1507	4459
1507	4689
1507	4944
1508	3768
1508	3816
1508	4767
1509	2196
1509	2332
1509	2686
1509	2920
1509	3427
1509	3583
1509	3982
1510	1769
1510	4323
1511	1936
1511	2322
1511	2323
1511	2619
1511	3174
1511	3492
1511	4554
1512	1562
1512	1909
1512	1940
1512	3228
1512	3306
1512	3537
1512	4147
1513	1807
1513	2421
1513	2600
1513	2748
1513	3051
1513	3325
1513	3696
1513	4070
1513	4215
1514	2043
1514	2149
1514	2677
1514	2746
1514	4058
1514	4976
1515	1793
1515	1858
1515	2346
1515	2857
1515	2866
1515	2922
1515	3118
1515	3167
1515	3248
1515	3403
1516	2418
1516	2580
1516	4289
1517	2272
1517	2680
1517	3154
1517	3164
1517	3679
1517	3930
1517	3953
1517	4400
1518	2306
1518	2480
1518	2698
1519	2144
1519	4178
1520	1564
1520	1907
1520	2765
1520	3353
1520	3961
1520	3999
1520	4661
1520	4728
1521	2467
1521	4310
1521	4356
1521	4590
1521	4796
1522	1928
1522	2836
1522	2864
1522	3134
1522	3621
1522	3925
1522	4243
1522	4641
1522	4864
1523	2905
1523	3759
1523	4395
1524	2162
1524	3407
1524	4935
1525	2003
1525	2406
1525	2602
1525	3681
1525	3958
1525	4005
1525	4251
1526	1601
1526	1761
1526	2048
1526	2156
1526	2631
1526	2736
1526	2998
1526	4609
1527	1542
1527	1657
1527	2087
1527	3545
1527	3964
1528	2590
1528	3681
1528	4003
1528	4510
1529	3084
1529	3111
1529	3516
1529	3692
1529	4120
1529	4743
1529	4786
1530	2518
1530	3047
1530	3241
1530	3728
1530	3851
1530	4320
1531	2151
1531	2879
1531	3421
1531	3832
1531	3915
1532	1597
1532	1723
1532	2300
1532	4386
1532	4599
1533	1930
1533	3458
1533	3864
1533	4338
1533	4359
1533	4513
1533	4944
1534	1547
1534	1642
1534	2431
1534	2583
1534	3386
1534	3784
1534	3838
1534	3904
1534	3934
1534	4204
1534	4370
1534	4512
1534	4913
1534	4942
1535	2632
1535	2736
1535	3373
1535	3729
1536	2409
1536	2565
1536	2753
1536	2758
1536	3001
1536	3744
1536	3845
1536	4138
1536	4232
1536	4676
1536	4693
1536	4806
1536	4844
1537	1823
1537	2811
1537	3320
1537	4398
1537	4908
1538	1659
1538	2120
1538	4356
1538	4517
1538	4619
1538	4634
1539	1731
1539	1742
1539	1901
1539	2135
1539	3806
1539	4554
1539	4562
1540	1686
1540	1758
1540	2050
1540	2519
1540	2538
1540	3254
1540	3443
1540	4194
1541	1604
1541	1910
1541	2254
1541	2522
1541	3040
1541	3320
1541	3539
1541	3977
1541	4098
1541	4406
1541	4877
1541	4983
1542	2257
1542	2692
1543	1886
1543	2383
1543	2948
1543	3304
1543	3346
1543	4070
1543	4158
1544	2049
1544	2485
1544	2563
1544	4058
1544	4275
1544	4358
1544	4767
1544	4990
1545	1611
1545	1804
1545	2881
1545	3800
1545	4787
1546	1756
1546	1828
1546	2124
1546	2531
1546	3152
1546	3373
1546	4448
1546	4582
1547	2021
1547	2497
1547	2835
1547	4406
1547	4564
1547	4738
1547	4743
1547	4963
1548	1600
1548	1991
1548	2273
1548	2605
1548	3018
1548	3233
1548	3528
1548	3714
1548	4447
1548	4676
1549	2094
1549	2295
1549	3134
1549	3383
1549	4296
1550	1753
1550	2826
1550	3416
1550	3758
1550	3878
1550	3996
1550	4035
1551	1945
1551	2322
1551	2375
1551	4165
1552	2613
1552	2689
1552	4074
1552	4467
1552	4628
1552	4862
1553	2146
1553	2229
1553	2546
1553	3102
1553	4155
1553	4178
1553	4208
1553	4507
1553	4872
1553	4917
1553	4958
1554	2987
1554	3103
1554	3300
1554	3625
1554	3895
1554	3956
1554	4279
1554	4843
1554	4848
1555	1839
1555	1937
1555	2731
1555	3106
1555	3572
1555	4145
1556	1568
1556	2328
1556	3002
1556	3409
1556	3583
1556	3799
1556	4570
1557	2050
1557	2153
1557	3276
1558	2779
1558	3083
1558	3578
1558	3973
1558	4431
1558	4641
1558	4960
1559	1650
1559	2172
1559	2266
1559	3392
1559	4286
1559	4463
1559	4630
1560	1561
1560	1727
1560	1792
1560	1923
1560	2242
1560	2794
1560	3631
1560	4392
1560	4637
1560	4842
1561	1883
1561	2509
1561	2797
1561	3284
1561	3291
1561	3448
1561	3622
1561	3660
1561	3854
1561	4780
1561	4918
1562	1650
1562	1679
1562	2158
1562	2711
1562	3016
1562	3700
1562	4101
1562	4430
1562	4545
1563	1761
1563	1917
1563	2110
1563	2594
1563	3986
1563	4506
1564	2327
1564	2718
1564	2746
1564	2970
1564	3121
1564	3757
1565	1626
1565	2142
1565	2190
1565	2577
1565	3553
1565	4786
1565	4995
1566	1575
1566	2322
1566	3530
1566	4611
1566	4689
1566	4756
1567	1671
1567	3059
1567	3803
1567	3954
1567	4533
1568	1645
1568	1707
1568	1820
1568	2696
1568	3612
1568	4895
1568	4982
1569	1605
1569	1718
1569	1747
1569	2087
1569	2602
1569	3048
1569	3084
1569	3264
1569	3785
1569	4085
1570	1586
1570	2304
1570	2401
1570	3091
1570	3162
1570	3208
1570	4737
1571	2633
1571	2660
1571	2758
1571	3327
1571	3364
1571	3932
1571	4803
1571	4929
1572	2350
1572	3969
1572	4194
1572	4415
1573	1591
1573	1875
1573	2763
1573	3162
1573	3319
1573	4092
1573	4515
1573	4660
1574	3421
1574	3862
1574	3998
1574	4037
1574	4794
1575	3088
1575	4352
1575	4926
1577	1715
1577	1949
1577	2709
1577	4129
1578	1671
1578	2208
1578	3401
1578	4196
1578	4574
1579	1625
1579	1867
1579	1885
1579	1919
1579	3266
1579	3311
1579	3607
1579	3847
1579	4214
1579	4705
1580	1873
1580	2817
1580	3288
1580	3386
1580	3624
1580	3990
1581	4914
1582	1651
1582	2153
1582	3042
1582	3162
1582	3356
1582	3547
1582	3594
1582	4058
1582	4616
1582	4652
1582	4662
1582	4748
1583	1753
1583	2373
1583	3386
1583	3613
1583	3695
1583	4162
1584	2552
1584	3218
1584	3945
1585	2101
1585	2305
1585	2674
1585	3887
1585	3916
1585	4822
1586	2079
1586	3236
1586	3546
1586	4296
1586	4579
1587	2378
1587	2385
1587	2399
1587	2902
1587	3957
1587	4124
1587	4134
1587	4485
1588	1748
1588	1814
1588	1868
1588	2768
1588	2839
1588	3123
1588	4248
1588	4582
1588	4609
1589	1617
1589	1652
1589	4035
1589	4778
1589	4784
1589	4859
1590	3034
1590	3203
1590	4241
1590	4288
1590	4717
1590	4880
1591	3222
1591	3904
1591	4545
1592	1628
1592	2023
1592	2635
1592	2725
1592	2811
1592	2937
1592	3211
1592	3367
1592	3696
1592	4321
1592	4845
1593	2025
1593	2390
1593	2832
1593	3193
1593	4310
1593	4795
1594	1948
1594	2901
1594	4011
1594	4154
1594	4840
1595	1961
1595	3578
1595	4540
1595	4682
1596	2597
1596	2765
1596	2813
1596	2887
1596	3073
1596	3832
1596	4268
1596	4436
1596	4618
1596	4753
1597	1604
1597	2126
1597	3185
1597	3438
1597	3749
1597	3832
1597	3881
1597	4406
1597	4735
1597	4748
1598	2552
1598	2639
1598	4494
1598	4905
1599	3868
1599	4328
1600	1612
1600	2582
1600	3796
1600	3835
1600	4122
1601	1870
1601	1990
1601	3891
1602	3031
1602	3402
1602	4545
1602	4772
1603	1825
1603	1878
1603	1957
1603	1983
1603	2038
1603	2050
1603	2230
1603	2682
1603	2926
1603	3124
1603	3516
1603	4961
1604	2232
1604	3209
1604	3251
1604	3287
1604	3464
1604	3948
1604	3991
1605	1709
1605	1797
1605	1939
1605	1977
1605	2925
1605	3337
1605	3496
1605	4005
1605	4203
1605	4345
1606	2212
1606	3248
1606	3259
1606	3523
1606	3974
1607	2538
1607	2808
1607	3100
1607	3525
1607	4071
1608	1925
1608	2350
1608	2444
1608	2884
1608	2914
1608	2916
1608	3206
1608	3254
1608	3514
1608	4263
1608	4501
1608	4755
1609	1922
1609	2899
1610	1764
1610	1783
1610	2227
1610	2900
1610	3774
1610	4114
1610	4306
1610	4891
1611	2494
1611	2565
1611	2994
1611	3804
1611	3935
1611	4245
1611	4288
1611	4413
1611	4985
1612	1904
1612	2380
1612	2584
1612	3074
1612	4156
1612	4400
1612	4938
1613	2438
1613	2934
1613	3352
1613	3640
1613	3644
1613	4595
1613	4825
1614	1723
1614	1792
1614	1928
1614	2285
1614	4080
1614	4229
1615	1830
1615	1986
1615	2011
1615	2219
1615	2763
1615	3336
1615	3846
1615	4538
1615	4649
1616	1999
1616	2101
1616	3847
1616	4125
1617	1856
1617	2858
1617	2887
1617	3330
1617	3532
1617	3886
1617	4303
1617	4886
1618	1748
1618	1971
1618	2707
1618	2843
1618	2934
1618	3027
1618	3388
1618	3963
1619	2188
1619	3939
1619	4020
1619	4259
1620	2886
1620	4080
1620	4173
1620	4572
1620	4601
1621	2264
1621	2432
1621	2844
1621	3488
1621	3564
1621	3660
1621	4636
1622	2273
1622	2347
1622	2413
1622	2502
1622	3193
1622	3983
1622	4691
1622	4781
1623	1893
1623	1963
1623	2861
1623	3416
1623	4016
1623	4166
1624	1632
1624	2784
1624	3566
1625	2235
1625	2366
1625	2902
1625	3814
1625	3852
1625	4057
1625	4083
1625	4092
1625	4290
1625	4367
1625	4457
1625	4509
1626	2029
1626	2886
1626	3278
1626	4428
1626	4660
1626	4825
1626	4986
1627	3244
1627	3950
1627	3953
1627	4439
1628	2162
1628	2458
1628	2655
1628	2816
1628	3005
1628	3079
1628	3243
1628	3657
1628	4003
1628	4070
1628	4630
1628	4780
1629	2708
1629	3126
1629	3140
1629	3537
1629	4018
1629	4049
1629	4398
1629	4832
1629	4912
1630	1740
1630	1960
1630	3319
1630	3766
1631	1956
1631	2234
1631	2488
1631	2498
1631	2562
1631	2728
1631	3908
1631	4766
1631	4800
1632	1849
1632	2308
1632	2527
1632	2968
1632	3509
1632	4526
1633	2268
1633	2276
1633	2532
1633	2974
1633	3700
1633	4073
1633	4908
1634	2193
1634	2287
1634	2347
1634	3116
1634	3549
1634	3810
1634	3893
1634	4767
1635	2563
1635	2729
1635	4724
1635	4866
1635	4915
1636	1768
1636	1769
1636	1884
1636	2802
1636	2830
1636	3182
1636	3507
1636	3588
1636	4733
1637	1696
1637	1956
1637	2835
1637	2927
1637	3388
1637	3660
1637	4199
1637	4510
1637	4747
1638	1679
1638	2578
1638	2772
1638	2873
1638	3159
1638	3272
1638	4258
1638	4933
1638	4982
1639	2163
1639	2562
1639	4708
1639	4769
1640	2275
1640	3788
1640	4927
1640	4978
1641	2102
1641	2408
1641	2903
1641	3024
1641	3193
1641	4540
1642	1854
1642	1947
1642	2255
1642	2271
1642	4197
1642	4720
1642	4723
1643	2170
1643	2627
1643	2740
1643	2918
1643	3513
1643	4303
1643	4899
1644	1719
1644	1823
1644	2917
1644	2961
1644	3964
1644	4125
1644	4220
1644	4563
1644	4677
1645	1981
1645	2337
1645	3073
1645	3686
1645	3779
1645	4259
1645	4323
1645	4326
1645	4524
1645	4563
1646	2537
1646	3359
1646	3715
1646	4457
1647	1878
1647	1932
1647	2062
1647	2348
1647	2480
1647	2515
1647	2975
1647	3041
1647	3144
1647	3537
1647	3983
1647	4539
1648	1712
1648	2006
1648	3426
1648	3787
1648	4133
1648	4394
1648	4467
1648	4665
1648	4792
1649	2363
1649	3144
1649	3662
1649	4575
1649	4952
1650	2024
1650	2383
1650	2586
1650	3087
1650	3608
1650	4659
1651	1782
1651	2443
1651	3170
1651	3239
1651	4464
1651	4734
1652	1971
1652	2242
1652	2281
1652	2398
1652	2679
1652	3165
1652	4591
1653	1991
1653	2138
1653	3209
1653	3355
1653	4180
1653	4481
1653	4738
1653	4741
1653	4967
1654	2042
1654	2157
1654	3626
1654	3803
1654	4312
1654	4460
1654	4615
1654	4835
1655	3112
1655	4009
1655	4196
1655	4767
1656	2022
1656	3201
1656	3652
1656	3732
1657	1783
1657	3695
1657	4062
1657	4121
1657	4333
1658	1897
1658	2645
1658	3281
1658	3382
1658	3589
1658	3712
1658	3903
1658	4626
1658	4938
1659	1698
1659	2561
1659	2801
1659	3642
1659	4231
1660	1912
1660	2812
1660	3959
1661	1781
1661	2331
1661	2519
1661	3034
1661	3395
1661	3750
1661	4205
1661	4375
1661	4873
1662	1671
1662	2049
1662	2080
1662	2242
1662	2553
1662	3101
1662	3535
1663	2604
1663	2690
1663	2810
1663	3294
1663	3607
1663	3618
1663	3970
1663	4331
1663	4542
1664	2722
1664	3391
1664	3761
1665	3667
1665	4690
1666	1733
1666	2008
1666	2389
1666	2886
1666	3168
1666	3325
1666	3452
1666	3937
1666	4703
1667	1725
1667	2444
1667	3483
1667	4252
1667	4699
1668	2223
1668	3097
1668	3569
1668	4587
1669	2220
1669	2464
1669	2908
1669	3158
1669	4000
1669	4701
1669	4944
1670	2014
1670	2582
1670	3008
1670	3320
1670	4104
1670	4135
1670	4529
1670	4825
1670	4981
1671	1683
1671	2252
1671	2356
1671	2579
1671	2739
1671	3270
1671	3292
1671	3516
1671	3851
1671	4055
1672	1892
1672	1935
1672	2132
1672	2199
1672	2247
1672	2371
1672	2752
1672	3276
1672	3623
1672	4222
1672	4242
1672	4525
1672	4582
1672	4810
1672	4897
1673	2529
1673	3025
1673	4057
1674	1837
1674	2097
1674	2173
1674	3474
1674	3560
1674	3697
1674	4644
1675	2238
1675	2529
1675	2688
1675	2811
1675	2970
1675	3208
1675	3639
1676	1990
1676	2308
1676	2334
1676	2673
1676	2992
1676	3757
1676	4274
1676	4282
1676	4819
1677	3095
1677	4293
1677	4533
1677	4876
1678	1777
1678	2792
1678	2877
1678	4168
1679	1809
1679	1844
1679	2066
1679	2287
1679	2475
1679	2999
1679	3140
1679	3531
1679	3962
1680	2117
1680	2494
1680	2633
1680	3059
1680	3403
1680	3734
1680	3947
1680	4298
1680	4317
1680	4365
1681	1883
1681	2013
1681	2209
1681	2987
1681	3632
1681	4245
1681	4309
1681	4429
1681	4492
1681	4558
1682	1872
1682	2228
1682	2397
1682	2992
1682	2996
1682	4103
1682	4454
1682	4545
1682	4598
1683	1822
1683	2114
1683	2125
1683	4450
1683	4949
1684	1779
1684	2543
1684	2895
1684	3373
1684	4284
1684	4717
1685	1758
1685	1877
1685	2924
1685	3008
1685	3085
1685	3591
1685	3687
1685	4290
1685	4916
1686	1749
1686	2096
1686	2209
1686	2290
1686	3473
1686	3596
1686	3601
1687	1907
1687	2005
1687	3705
1687	3859
1687	3896
1687	4199
1687	4639
1688	1690
1688	1776
1688	3112
1688	3724
1688	3803
1688	3927
1688	4443
1688	4463
1688	4642
1689	1955
1689	2180
1689	2264
1689	2464
1689	3077
1689	3423
1689	3563
1689	3655
1689	3939
1690	2021
1690	2801
1690	3758
1690	4490
1691	1992
1691	2424
1691	2596
1691	2821
1691	3357
1691	3513
1691	3687
1691	3918
1691	4587
1691	4934
1692	2187
1692	4097
1693	1873
1693	2388
1693	2962
1693	3184
1693	3522
1693	3648
1693	4675
1693	4838
1693	4893
1694	1906
1694	1942
1694	2770
1694	3206
1694	3278
1694	4434
1695	2973
1695	3608
1695	3837
1695	3999
1695	4165
1695	4316
1695	4774
1695	4854
1696	2185
1696	2491
1696	2514
1696	2529
1696	3236
1696	3525
1696	3940
1696	4422
1696	4439
1697	1833
1697	2947
1697	3993
1697	4137
1697	4179
1698	2639
1698	2832
1698	3106
1698	3154
1698	3343
1698	4651
1698	4840
1699	2372
1699	2629
1699	2743
1699	3050
1699	3071
1699	3293
1699	4467
1699	4937
1700	2119
1700	2665
1700	2703
1700	3080
1700	3562
1700	3616
1700	3929
1700	4834
1700	4991
1701	1950
1701	2625
1701	3476
1702	2672
1702	2721
1702	3112
1702	3209
1702	3678
1702	3709
1702	3832
1702	4391
1702	4700
1703	1723
1703	2441
1703	2662
1703	3425
1703	4544
1704	2006
1704	2057
1704	2431
1704	2476
1704	3189
1704	4124
1704	4581
1705	2285
1705	2373
1705	2398
1705	2827
1705	4474
1706	2638
1706	4132
1706	4966
1707	2329
1707	3014
1707	3352
1707	3622
1707	3644
1707	3693
1707	4070
1707	4884
1708	2053
1708	2234
1708	3146
1708	3771
1708	3925
1708	4015
1708	4327
1708	4660
1708	4881
1709	2433
1709	4380
1709	4416
1709	4820
1709	4886
1710	2364
1710	2453
1710	2712
1710	2745
1710	2903
1710	3161
1710	3542
1710	4142
1710	4384
1710	4453
1711	2268
1711	2604
1711	3572
1711	3890
1711	4002
1712	2093
1712	2177
1712	2305
1712	4116
1712	4586
1713	3169
1713	3209
1713	4699
1714	1892
1714	2293
1714	2363
1714	2955
1714	3075
1714	4353
1714	4675
1714	4952
1715	1880
1715	1897
1715	3868
1715	3965
1715	4755
1716	1764
1716	1857
1716	2553
1716	2857
1716	3019
1716	3402
1716	3787
1716	4016
1716	4788
1717	2586
1718	2333
1718	3023
1718	3504
1718	3556
1718	4445
1718	4484
1718	4648
1719	2059
1719	2322
1719	2569
1719	2823
1719	4343
1719	4858
1719	4988
1720	1896
1720	1969
1720	2073
1720	2489
1720	2817
1720	2986
1720	3424
1720	4957
1721	1987
1721	2195
1721	2259
1721	2357
1721	2688
1721	4234
1721	4328
1721	4850
1722	1829
1722	2314
1722	2388
1722	2931
1722	3279
1722	4680
1723	1775
1723	2021
1723	2128
1723	2167
1723	3203
1724	2843
1724	3300
1724	3475
1725	1996
1725	2063
1725	2186
1725	2515
1725	2758
1725	3299
1725	3905
1725	3929
1725	4007
1725	4237
1725	4457
1725	4621
1725	4663
1725	4760
1725	4764
1726	2162
1726	3107
1726	3541
1726	4003
1726	4879
1727	1772
1727	3770
1727	3949
1727	4396
1728	2380
1728	2997
1728	3631
1728	3660
1728	4439
1728	4499
1728	4830
1728	4848
1728	4918
1729	1803
1729	2059
1729	3078
1729	3744
1729	4577
1730	1942
1730	2039
1730	2575
1730	2652
1730	2654
1730	2872
1730	3242
1730	4317
1730	4956
1731	2161
1731	2674
1731	2938
1731	3144
1731	3553
1731	4147
1732	2082
1732	2320
1732	2754
1732	3071
1732	3544
1732	3626
1732	4962
1733	3612
1733	4791
1734	2022
1734	2868
1734	3597
1734	3677
1734	4275
1735	1783
1735	2378
1735	3764
1736	2947
1736	3325
1736	4690
1736	4821
1737	3171
1737	3408
1737	4155
1738	2156
1738	2255
1738	2618
1738	2911
1738	2947
1738	3710
1738	3713
1738	3733
1738	4082
1738	4190
1738	4559
1738	4697
1739	1855
1739	2014
1739	3092
1739	4336
1739	4705
1739	4787
1740	2410
1740	2531
1740	3153
1740	3281
1740	3379
1740	3418
1740	3563
1740	4188
1740	4245
1740	4950
1741	2960
1741	3351
1741	4575
1741	4816
1742	2159
1742	2470
1742	2652
1742	3072
1742	3702
1742	4101
1742	4909
1743	1979
1743	2342
1743	3628
1743	4908
1744	1827
1744	2088
1744	2192
1744	2503
1744	2694
1744	2974
1744	3242
1744	3725
1744	3767
1744	3967
1744	4102
1744	4322
1744	4540
1744	4698
1745	1994
1745	4184
1745	4783
1746	1814
1746	2174
1746	3008
1746	3784
1746	3837
1746	4461
1747	1794
1747	2994
1747	3499
1748	1808
1748	2878
1748	3523
1748	3665
1748	3940
1748	4616
1749	1759
1749	2330
1749	2394
1749	2449
1749	2573
1749	3032
1749	4196
1749	4246
1750	1770
1750	1868
1750	1945
1750	2051
1750	2056
1750	4338
1750	4353
1750	4409
1751	1876
1751	2140
1751	2238
1751	2361
1751	2915
1751	3574
1751	3749
1751	4830
1751	4842
1752	1905
1752	2181
1752	2731
1752	3096
1752	3173
1752	3179
1752	3492
1752	3689
1752	3896
1752	4317
1752	4671
1753	2323
1753	2572
1753	2753
1753	3152
1753	4072
1753	4100
1753	4355
1753	4911
1754	2184
1754	2276
1754	2521
1755	2340
1755	2772
1755	2790
1755	3093
1755	3350
1755	3696
1755	3702
1755	4082
1755	4626
1756	1933
1756	2459
1756	3023
1756	3084
1756	3413
1756	3698
1757	2695
1757	2729
1757	2959
1757	3616
1757	4075
1757	4097
1757	4373
1757	4556
1757	4943
1758	2135
1758	2540
1758	2810
1758	2917
1758	3201
1758	3582
1758	3725
1758	3783
1758	3986
1759	1807
1759	1887
1759	1970
1760	1934
1760	2008
1760	3421
1760	3472
1760	3556
1760	4162
1760	4251
1760	4556
1761	2995
1761	3174
1761	3573
1761	3847
1761	4388
1761	4489
1762	2099
1762	2361
1762	3012
1762	3143
1762	3282
1762	3659
1762	4030
1762	4646
1762	4746
1763	2671
1763	3191
1763	3364
1763	3403
1763	3782
1763	4853
1764	1869
1764	1946
1764	2401
1764	3490
1764	3831
1764	3965
1765	1785
1765	1787
1765	2476
1765	2489
1765	2723
1765	3383
1765	3965
1765	4000
1765	4200
1765	4910
1766	2669
1766	2758
1766	4145
1766	4156
1766	4676
1766	4943
1767	1886
1767	2265
1767	2435
1767	2583
1767	2977
1767	3317
1767	3358
1767	4176
1767	4517
1767	4935
1768	1840
1768	1897
1768	3237
1768	3250
1768	3433
1768	3651
1769	1986
1769	2584
1769	2823
1769	2936
1770	1881
1770	2776
1770	2822
1770	3292
1770	3445
1770	3500
1771	2102
1771	2131
1771	2864
1771	2918
1771	3182
1771	4032
1771	4183
1772	2463
1772	2573
1772	2826
1772	3352
1772	3556
1772	4386
1772	4476
1773	1965
1773	2433
1773	2434
1773	2530
1773	3258
1773	3279
1773	4208
1773	4250
1773	4522
1773	4674
1773	4939
1774	1908
1774	2165
1774	2434
1774	3000
1774	4776
1775	2371
1775	3462
1776	1968
1776	2063
1776	2485
1776	3314
1776	3457
1776	4072
1777	1926
1777	2629
1777	3654
1778	3436
1778	4038
1778	4748
1778	4817
1779	2050
1779	3529
1779	4132
1779	4194
1779	4640
1779	4643
1780	2402
1780	3358
1780	4431
1781	2791
1781	3686
1781	3822
1781	4521
1781	4792
1781	4931
1782	2257
1782	3193
1782	3893
1782	4447
1783	2215
1783	2898
1783	3080
1783	3153
1783	3717
1783	4135
1784	1981
1784	2477
1784	3101
1784	3164
1784	3850
1785	1964
1785	2193
1785	2778
1785	3158
1785	3275
1786	1915
1786	2151
1786	2171
1786	2734
1786	3575
1787	2720
1787	3210
1787	3273
1787	4007
1787	4322
1788	1933
1788	2607
1788	3342
1788	3949
1788	4093
1788	4188
1789	2049
1789	3033
1789	3130
1789	3808
1789	4536
1789	4722
1790	2251
1790	2861
1791	1795
1791	1888
1791	2424
1791	2507
1791	3744
1791	4381
1792	2344
1792	3285
1792	3562
1792	3579
1792	3767
1792	3890
1792	4028
1792	4947
1793	1935
1793	3299
1793	3478
1793	3977
1793	4158
1794	1890
1794	2227
1794	2276
1794	2507
1794	2883
1794	3039
1794	3152
1794	3251
1794	3305
1794	3306
1794	4033
1794	4706
1795	1908
1795	1916
1795	2434
1795	2774
1795	3414
1795	3934
1795	4092
1795	4493
1795	4654
1795	4922
1795	4939
1796	2730
1796	3114
1796	3219
1796	4738
1796	4892
1797	1980
1797	2693
1797	3706
1797	3817
1797	4233
1797	4440
1797	4898
1797	4987
1798	2626
1798	2836
1798	2849
1798	2931
1798	3850
1798	4591
1798	4786
1799	2459
1799	2626
1799	3111
1799	3144
1799	3826
1799	3897
1799	4601
1800	2044
1800	2100
1800	2893
1800	2941
1800	3085
1800	3450
1800	4121
1800	4232
1800	4383
1800	4444
1800	4634
1801	3712
1801	4284
1802	2558
1802	2651
1802	3155
1802	4783
1803	2253
1804	2506
1804	2898
1804	4090
1804	4961
1805	2216
1805	2581
1805	2588
1805	3035
1805	4161
1805	4708
1805	4884
1805	4983
1806	2829
1806	4737
1807	1912
1807	2017
1807	2399
1807	2769
1807	3130
1807	3176
1807	3309
1807	3863
1807	3970
1807	3991
1808	2060
1808	2533
1808	3142
1808	4987
1809	2176
1809	2338
1809	2579
1809	2802
1809	3156
1809	3854
1809	4396
1809	4413
1809	4482
1810	2035
1810	2210
1810	2396
1810	4214
1810	4338
1810	4408
1810	4887
1811	2114
1811	2767
1811	2923
1811	3546
1811	4015
1811	4471
1811	4593
1812	2666
1812	3467
1812	3725
1812	3936
1812	4132
1812	4632
1813	2479
1813	2609
1813	2804
1813	3101
1813	3144
1813	3367
1813	3370
1813	4749
1814	2298
1814	2615
1814	2917
1814	4686
1814	4931
1815	2369
1815	3561
1815	3963
1815	4665
1815	4743
1815	4819
1815	4990
1816	2518
1816	2712
1816	2795
1816	3265
1816	3304
1816	3638
1816	4385
1816	4432
1817	2111
1817	2196
1817	2445
1817	2822
1817	3035
1818	2434
1818	3430
1818	3678
1818	4039
1819	2330
1819	2613
1819	2633
1819	3518
1820	2177
1820	2441
1820	2645
1820	2685
1820	3406
1820	3663
1820	4300
1820	4313
1821	1912
1821	2290
1821	2719
1821	3775
1821	4089
1821	4605
1822	2698
1822	2703
1822	2889
1822	2973
1822	3012
1822	3340
1822	4241
1823	2056
1823	2566
1823	2701
1823	4170
1823	4749
1823	4910
1824	1889
1824	2304
1824	2698
1824	3032
1824	3075
1824	3257
1824	3395
1824	3634
1824	3672
1824	3925
1824	3940
1824	4212
1824	4650
1825	3356
1825	3480
1825	3829
1825	4334
1826	4564
1826	4767
1826	4830
1826	4877
1827	2178
1827	2627
1827	3009
1827	3078
1827	3198
1827	3603
1827	4179
1827	4681
1827	4941
1828	1980
1828	2705
1828	3151
1828	3313
1828	4198
1828	4440
1828	4650
1829	1984
1829	2760
1829	3864
1829	4025
1829	4052
1829	4103
1829	4504
1829	4661
1830	1892
1830	2360
1830	2825
1830	2831
1830	3043
1830	3494
1830	4623
1831	2085
1831	2352
1831	2791
1831	3373
1831	3547
1831	3963
1832	2005
1832	2021
1832	2090
1832	2342
1832	2481
1832	2495
1832	3384
1833	2250
1833	2476
1833	2985
1833	3642
1834	2263
1834	2431
1834	2616
1834	2665
1834	2691
1834	2857
1834	3731
1834	4710
1834	4841
1835	2214
1835	3569
1835	4028
1835	4311
1835	4323
1835	4604
1835	4992
1836	2026
1836	2130
1836	2521
1836	2721
1836	3707
1836	3798
1836	4374
1836	4693
1837	2125
1837	2927
1837	3440
1837	4330
1838	2265
1838	3037
1838	3040
1838	3667
1838	3856
1838	3910
1838	3948
1838	3951
1839	2313
1839	2445
1839	2547
1839	3268
1839	4099
1839	4231
1839	4491
1840	2256
1840	2395
1840	2398
1840	2628
1840	2890
1841	2381
1841	3575
1841	4525
1841	4837
1841	4860
1841	4882
1842	1920
1842	2186
1842	2411
1842	2595
1842	2764
1842	2944
1842	3385
1843	1893
1843	2700
1843	2719
1843	3156
1843	3646
1843	3724
1843	3783
1843	4088
1844	2328
1844	2727
1844	3024
1844	3139
1844	3162
1844	3199
1844	3582
1844	4003
1844	4045
1844	4236
1844	4245
1844	4261
1844	4422
1844	4549
1844	4770
1844	4944
1845	2167
1845	2582
1845	2689
1845	3031
1845	3082
1846	2356
1846	3317
1846	3717
1846	3830
1846	4784
1846	4927
1847	2227
1847	2586
1847	2640
1847	3178
1847	3231
1847	3291
1847	3303
1848	2012
1848	2441
1848	3652
1848	4232
1848	4359
1849	2160
1849	2358
1849	2651
1849	3906
1849	4009
1849	4558
1850	1920
1850	3026
1850	3132
1850	4036
1850	4271
1850	4527
1850	4548
1850	4693
1851	3244
1851	3277
1851	4947
1852	2778
1852	2947
1852	3764
1852	4857
1853	3134
1853	3644
1853	3733
1853	3908
1853	4088
1853	4313
1854	2427
1854	2541
1854	3212
1854	3241
1854	3837
1854	3928
1854	4028
1854	4242
1854	4836
1855	2611
1855	3177
1855	3249
1855	4618
1855	4945
1856	2844
1856	4936
1857	2471
1857	3002
1857	3669
1857	4180
1857	4678
1858	2183
1858	3002
1858	3843
1858	4463
1859	2331
1859	2708
1859	3448
1859	3787
1859	3889
1859	4081
1859	4750
1860	1952
1860	1955
1860	3185
1860	3285
1860	3520
1860	3756
1860	4130
1860	4173
1860	4349
1860	4410
1860	4569
1861	1909
1861	1985
1861	2228
1861	2346
1861	2643
1861	3209
1861	3884
1861	4176
1862	1895
1862	3093
1862	3106
1862	3539
1862	3884
1862	4510
1862	4881
1863	2613
1863	2775
1863	2907
1863	3237
1863	3351
1863	3438
1863	4561
1863	4949
1864	2230
1864	2499
1864	2874
1864	3116
1864	3145
1864	3455
1864	3575
1864	4178
1864	4239
1864	4309
1864	4668
1865	2726
1865	2772
1865	3343
1865	3853
1866	2288
1866	2300
1866	2318
1866	2708
1866	2828
1866	3667
1866	4152
1867	2437
1867	2575
1867	3237
1867	3365
1867	3543
1867	3728
1867	4226
1867	4250
1867	4688
1867	4795
1867	4803
1867	4864
1867	4982
1868	1885
1868	2236
1868	2657
1868	3755
1868	3988
1868	4583
1869	2307
1869	4083
1869	4269
1869	4512
1870	1892
1870	2014
1870	2738
1870	3216
1870	3890
1870	4364
1870	4969
1871	1944
1871	2261
1871	2419
1871	2798
1871	2857
1871	3083
1871	3285
1871	3508
1871	3708
1872	2304
1872	2388
1872	2658
1872	3465
1872	3778
1872	4189
1872	4297
1872	4363
1872	4458
1872	4787
1872	4800
1873	2137
1873	2511
1873	2560
1873	2759
1873	3451
1873	4299
1874	2101
1874	2181
1874	3767
1874	3905
1874	3993
1874	4327
1874	4590
1874	4940
1875	2537
1875	2654
1875	2663
1875	2775
1875	4925
1876	1907
1877	2826
1877	3145
1877	3727
1877	4131
1877	4603
1877	4859
1878	1900
1878	2858
1878	3552
1878	4128
1878	4284
1878	4315
1879	2009
1879	2966
1879	3156
1879	3210
1879	3427
1879	3481
1879	3969
1880	3525
1880	3700
1880	3986
1880	4127
1880	4261
1880	4915
1881	3183
1881	3391
1881	3866
1881	4105
1881	4485
1881	4571
1881	4804
1882	2177
1882	2462
1882	2971
1882	4600
1883	2326
1883	2381
1883	4977
1884	2378
1884	2455
1884	2469
1884	3609
1885	1964
1885	2884
1885	3017
1885	3134
1885	3582
1885	3628
1885	3959
1885	4386
1886	2364
1886	2440
1886	2644
1886	2765
1886	3427
1886	4314
1886	4802
1887	1892
1887	2290
1887	3123
1887	3158
1887	3649
1887	3711
1887	4818
1887	4839
1887	4948
1888	2355
1888	2590
1888	2795
1888	2994
1888	3888
1888	4873
1889	2071
1889	2102
1889	2236
1889	2261
1889	2770
1889	2872
1889	3267
1889	3913
1889	4714
1889	4761
1890	2281
1890	3441
1890	3625
1890	3673
1890	3956
1890	4319
1891	1950
1891	1974
1891	3089
1891	3226
1891	4171
1891	4295
1891	4435
1891	4528
1892	2145
1892	2699
1892	2971
1892	3104
1892	3145
1892	3548
1892	3788
1892	3829
1893	2698
1893	2786
1893	4045
1894	3143
1894	3754
1894	4462
1895	2085
1895	3415
1895	4364
1895	4807
1896	2374
1896	2431
1896	2985
1896	3580
1896	4446
1897	2895
1897	3438
1897	3976
1898	2002
1898	2398
1898	2766
1898	3181
1898	3925
1898	4261
1898	4339
1899	2620
1899	2694
1899	3493
1899	4074
1899	4111
1899	4505
1899	4887
1900	1948
1900	2372
1900	2377
1900	3404
1900	3406
1900	3759
1900	3762
1900	4238
1900	4280
1900	4470
1901	1994
1901	2313
1901	3786
1901	4619
1902	2271
1902	3193
1902	3539
1902	3607
1902	3921
1902	4407
1903	1993
1903	2421
1903	2903
1903	3083
1903	3281
1903	3569
1903	3852
1903	3933
1904	2420
1904	3309
1904	3516
1904	4261
1904	4746
1905	2318
1905	3409
1906	2311
1906	2611
1906	3624
1906	3887
1906	4266
1906	4620
1906	4621
1906	4921
1907	1956
1907	2199
1907	2450
1907	2940
1907	3139
1907	4521
1907	4861
1908	1999
1908	2177
1908	2560
1908	4618
1909	2160
1909	2347
1909	2939
1909	3577
1909	3725
1909	3938
1909	3957
1909	4038
1910	1975
1910	2345
1910	3407
1910	3540
1910	3873
1910	3914
1910	4047
1910	4071
1910	4651
1911	2920
1911	3045
1911	3493
1911	4405
1911	4480
1912	2538
1912	2555
1912	2752
1912	2789
1912	3209
1912	3313
1913	3382
1913	4341
1913	4598
1914	2037
1914	3651
1914	3712
1914	4251
1914	4726
1914	4980
1915	2883
1915	3014
1915	3860
1915	3864
1915	4054
1915	4181
1915	4216
1916	2198
1916	2368
1916	3125
1916	3632
1916	4050
1916	4170
1916	4606
1917	1968
1917	2103
1917	2609
1917	3377
1917	3783
1917	3996
1918	2591
1918	2843
1918	3136
1918	3232
1918	3550
1918	3805
1918	3928
1918	4032
1918	4995
1919	2027
1919	2129
1919	3745
1919	4154
1919	4308
1920	2597
1920	2694
1920	2715
1920	2932
1920	3552
1920	3961
1921	2663
1921	2804
1921	3236
1921	4432
1921	4985
1922	2344
1922	2982
1922	4585
1922	4587
1922	4892
1923	2328
1923	2434
1923	3076
1923	3171
1923	3422
1923	3920
1924	4021
1924	4169
1924	4845
1924	4846
1924	4904
1925	1952
1925	2818
1925	2863
1925	3672
1925	3850
1925	4569
1926	3116
1927	2173
1927	2390
1927	2650
1927	3701
1927	3870
1928	1963
1928	2035
1928	2414
1928	4187
1928	4510
1929	3872
1929	3895
1929	4723
1930	2038
1930	2094
1930	2473
1930	2718
1930	2912
1930	3399
1930	3830
1930	4011
1930	4395
1930	4777
1931	2105
1931	2732
1931	2831
1931	3518
1931	3946
1931	4579
1931	4830
1931	4913
1931	4943
1932	2626
1932	2732
1932	2815
1932	4326
1932	4348
1932	4836
1932	4844
1933	2001
1933	2162
1933	2929
1933	4071
1933	4373
1933	4946
1934	1987
1934	2314
1934	2811
1934	3117
1934	3287
1934	4363
1934	4385
1934	4629
1935	3633
1935	4391
1935	4656
1935	4984
1936	1999
1936	3201
1936	3975
1936	4441
1936	4688
1937	2320
1937	3576
1938	2046
1938	2392
1938	2422
1938	3012
1938	4216
1938	4890
1939	2402
1939	2548
1939	4197
1939	4897
1939	4950
1940	2051
1940	2090
1940	3837
1941	2338
1941	2818
1941	3420
1941	3485
1941	3654
1942	2728
1942	3005
1942	4338
1943	2532
1943	2972
1943	4201
1943	4685
1943	4931
1944	2405
1944	2506
1944	2864
1944	2899
1944	3260
1944	3299
1944	3580
1944	3787
1944	4233
1944	4667
1945	2134
1945	2860
1945	2888
1945	4454
1945	4942
1946	2139
1946	2193
1946	2985
1946	3109
1946	3777
1946	3977
1946	4581
1947	2324
1947	3395
1947	3396
1947	4207
1947	4225
1947	4639
1948	2406
1948	2552
1948	2591
1948	2968
1948	3671
1948	4869
1949	3226
1949	3486
1949	3846
1950	2030
1950	3417
1950	3900
1950	4220
1950	4252
1950	4668
1950	4882
1951	2607
1951	2730
1951	3236
1951	3463
1951	3556
1951	3828
1951	4016
1952	1966
1952	1970
1952	2390
1952	2512
1952	2694
1952	3303
1952	3742
1952	3829
1952	4351
1952	4694
1953	1977
1953	2225
1953	2349
1953	2696
1953	3279
1953	4390
1953	4481
1953	4716
1954	2194
1954	2843
1954	3193
1954	3205
1954	3229
1954	3663
1954	4153
1955	2349
1955	3971
1955	4072
1955	4188
1955	4192
1955	4297
1955	4918
1956	2034
1956	2264
1956	2792
1956	3222
1957	3906
1957	4492
1957	4825
1958	2245
1958	2710
1958	3049
1958	3424
1958	4227
1958	4599
1959	2377
1959	2852
1959	2862
1959	2997
1959	3588
1959	3739
1959	4369
1960	2328
1960	3013
1960	3321
1960	3902
1960	4071
1960	4261
1960	4811
1961	3085
1961	4108
1961	4584
1962	2866
1962	2904
1962	2913
1962	4044
1962	4483
1962	4843
1963	3515
1963	3589
1963	3918
1963	4077
1963	4445
1963	4865
1964	2222
1964	2307
1964	2824
1964	2853
1964	3340
1964	3358
1964	4384
1965	2160
1965	2494
1965	2511
1965	2910
1965	3183
1965	3433
1965	3692
1965	4300
1966	2181
1966	2461
1966	2574
1966	3867
1966	4038
1966	4092
1966	4804
1966	4810
1967	2505
1967	2539
1967	3644
1967	3713
1967	4041
1967	4072
1967	4527
1967	4607
1968	2064
1968	2226
1968	2405
1968	3714
1968	4064
1968	4357
1968	4453
1968	4754
1969	2306
1969	2538
1969	3000
1969	3638
1969	4066
1969	4439
1970	2414
1970	3737
1970	4839
1971	2124
1971	2142
1971	2407
1971	4907
1972	2558
1972	2783
1972	2803
1972	3204
1972	3608
1972	3804
1972	3954
1972	4307
1972	4976
1973	2492
1973	2998
1973	3120
1973	3174
1973	3736
1973	3807
1973	4129
1974	3001
1974	3297
1974	4987
1975	2471
1975	2587
1975	2691
1975	2990
1975	3413
1975	3600
1975	3669
1975	4603
1975	4827
1975	4922
1976	2469
1976	2504
1976	3566
1976	4055
1976	4138
1976	4595
1976	4859
1977	3739
1977	3822
1977	4184
1978	2297
1978	2580
1978	2777
1978	2937
1978	3007
1978	4610
1979	2116
1979	2191
1979	2837
1979	3021
1979	3173
1979	4742
1980	2971
1980	3224
1980	3574
1980	3693
1980	3934
1980	4130
1980	4419
1981	2065
1981	2261
1981	2541
1981	4134
1981	4532
1982	2852
1982	3188
1982	3385
1982	3513
1982	3685
1982	3720
1982	3948
1982	3977
1982	4726
1983	1998
1983	2496
1983	3133
1983	3556
1983	3764
1983	4092
1983	4723
1984	2248
1984	2408
1984	2657
1984	2955
1984	3099
1984	4287
1984	4762
1985	2290
1985	2457
1985	2710
1985	2856
1985	3330
1985	3480
1985	3813
1986	2391
1986	4763
1986	4959
1987	2194
1987	2856
1987	3122
1987	3255
1987	3475
1987	3804
1987	3878
1987	4510
1987	4556
1987	4578
1988	2166
1988	3574
1988	3745
1988	4623
1988	4744
1989	2991
1989	3460
1989	4731
1989	4941
1990	2583
1990	2600
1990	2618
1990	2955
1990	3024
1990	4983
1991	2305
1991	2363
1991	2756
1991	3369
1991	3599
1991	4155
1992	1995
1992	2099
1992	2310
1992	3763
1992	4185
1992	4468
1993	2293
1993	2816
1993	3239
1993	3571
1993	3634
1993	3835
1993	4440
1993	4466
1993	4691
1994	2362
1994	2467
1994	2485
1994	2809
1994	4825
1995	2473
1995	2884
1995	3457
1995	3642
1996	2263
1996	2709
1996	2967
1996	3082
1996	3116
1996	3588
1996	4616
1996	4676
1996	4692
1996	4951
1997	4882
1998	2736
1998	2758
1998	4421
1999	3227
1999	4932
2000	2077
2000	2286
2000	2451
2000	4465
2000	4553
2000	4714
2001	3444
2001	3928
2001	4115
2001	4944
2002	2268
2002	2329
2002	2616
2002	2697
2002	2702
2002	3263
2002	3720
2002	3912
2002	4640
2003	2126
2003	3099
2003	3614
2003	4254
2003	4261
2003	4935
2004	2474
2004	2870
2004	3500
2004	3884
2004	4097
2005	2131
2005	2399
2005	2679
2005	2738
2005	3215
2005	3358
2005	3738
2005	3959
2005	4020
2005	4049
2005	4246
2005	4342
2005	4483
2006	2760
2006	2977
2006	3292
2006	3517
2006	3589
2006	3696
2006	3908
2006	4175
2006	4696
2007	2225
2007	2395
2007	3342
2007	3425
2007	3464
2007	4953
2008	3295
2008	3380
2008	3923
2008	4221
2008	4540
2008	4687
2009	2034
2009	3339
2009	4672
2010	3153
2010	3589
2010	4576
2011	2196
2011	2532
2011	3173
2011	4134
2011	4413
2011	4801
2011	4869
2011	4983
2012	2129
2012	2202
2012	2543
2012	2770
2012	3240
2012	4380
2013	2021
2013	2163
2013	2757
2013	3079
2013	4008
2013	4124
2014	2620
2014	2883
2014	4136
2014	4609
2015	2374
2015	2792
2015	3416
2015	3652
2015	4374
2015	4671
2016	2143
2016	2846
2016	3557
2016	3572
2016	4545
2017	2558
2018	2424
2018	2553
2018	2583
2018	2739
2018	3670
2018	4244
2018	4427
2018	4526
2018	4921
2019	2193
2019	2899
2019	4073
2019	4972
2020	2852
2020	3218
2020	4373
2020	4603
2021	2260
2021	2351
2021	2974
2021	3555
2021	3934
2021	4271
2021	4654
2022	2570
2022	4457
2023	2453
2023	2653
2023	2882
2023	3638
2023	3733
2023	3904
2023	4563
2023	4976
2024	3187
2024	3419
2025	2758
2025	3345
2025	3380
2025	4749
2026	2471
2026	3028
2026	3525
2026	3977
2026	4028
2026	4307
2026	4626
2026	4718
2027	2268
2027	2672
2027	2855
2027	3226
2027	3237
2028	2130
2028	3055
2028	3752
2028	4121
2028	4257
2029	2126
2029	2425
2029	3016
2029	3169
2029	3260
2029	4177
2029	4362
2029	4990
2030	2692
2030	2764
2030	3063
2030	3634
2030	4149
2030	4273
2031	2553
2031	2668
2031	2748
2031	3353
2031	3637
2031	3829
2031	3838
2031	4039
2032	2498
2032	3323
2032	3430
2032	3506
2032	3577
2032	4057
2032	4509
2032	4716
2032	4968
2033	2920
2033	3571
2033	3972
2033	4561
2033	4623
2033	4738
2033	4866
2034	2083
2034	2637
2034	3466
2034	3545
2034	3736
2035	3104
2035	3811
2035	4328
2035	4592
2036	2310
2036	3258
2036	4190
2036	4504
2036	4881
2036	4916
2036	4981
2037	2535
2037	3479
2037	3688
2037	3949
2037	4456
2037	4540
2038	2245
2038	2329
2038	4668
2038	4674
2039	2961
2039	3040
2039	3940
2040	2381
2040	3975
2040	4347
2040	4935
2041	2420
2041	3491
2041	4379
2041	4588
2042	2867
2042	4819
2043	2794
2043	2930
2043	3214
2043	3522
2043	3570
2043	3794
2043	3833
2043	4640
2044	2918
2044	3260
2044	3706
2044	4924
2045	2451
2045	2624
2045	3029
2045	3992
2045	4485
2045	4953
2046	2319
2046	2428
2046	2542
2046	2925
2046	3200
2046	4539
2047	2354
2047	2456
2047	2719
2047	2800
2047	3147
2047	3490
2047	3671
2047	3681
2047	4080
2047	4796
2047	4952
2047	4970
2048	2063
2048	2543
2048	3695
2048	4596
2049	2170
2049	4171
2049	4231
2049	4406
2049	4949
2050	2515
2050	2525
2050	2655
2050	2983
2050	4515
2050	4523
2050	4743
2051	3029
2051	4397
2052	2554
2052	3744
2052	4117
2052	4849
2053	2222
2053	2544
2053	2922
2053	4178
2053	4808
2054	2145
2054	3129
2054	3799
2054	3833
2055	2068
2055	4706
2055	4761
2055	4772
2055	4878
2056	2072
2056	2142
2056	2411
2056	3210
2056	3826
2056	3916
2056	3962
2057	2637
2057	3146
2057	3265
2057	3562
2057	4450
2057	4839
2057	4911
2058	2234
2058	3042
2058	3115
2058	3483
2058	3692
2058	4013
2059	2253
2059	2297
2059	2333
2059	3012
2059	4549
2060	2148
2060	3028
2060	3325
2060	3425
2060	3909
2060	4434
2060	4623
2061	2373
2061	3743
2061	3958
2061	4027
2061	4883
2062	3237
2062	3284
2062	4452
2062	4571
2062	4865
2063	2254
2063	2506
2063	2943
2063	3008
2063	3262
2063	3797
2063	4826
2064	2302
2064	2823
2064	4124
2064	4277
2064	4349
2064	4511
2065	2126
2065	4028
2065	4271
2065	4564
2065	4739
2066	3067
2066	3335
2066	4125
2066	4252
2067	2806
2067	3268
2067	3370
2067	4331
2067	4570
2068	2107
2068	3111
2068	3651
2068	4791
2068	4963
2069	2163
2069	2646
2069	3325
2069	3342
2069	3442
2069	4081
2069	4231
2070	2270
2070	2434
2070	3816
2070	4075
2070	4082
2070	4096
2070	4475
2070	4972
2071	2550
2071	2723
2071	3041
2071	3099
2071	3781
2071	4034
2072	2631
2072	3119
2072	4308
2073	3587
2073	4913
2074	2178
2074	2408
2074	2616
2074	2837
2074	2869
2074	2872
2074	3304
2074	3770
2074	3963
2074	4252
2074	4769
2074	4974
2075	2259
2075	2378
2075	2675
2075	3113
2075	3289
2075	3898
2075	4573
2075	4925
2076	2252
2076	2451
2076	2452
2076	2621
2076	3210
2076	3376
2076	3492
2077	2573
2077	2921
2077	3548
2077	4008
2077	4910
2078	2180
2078	2231
2078	3920
2078	4076
2079	2087
2079	2144
2079	3660
2080	2195
2080	2497
2080	3497
2081	2224
2081	2546
2081	2805
2081	2998
2081	3727
2081	3897
2082	2131
2082	3007
2082	3118
2082	3694
2082	4504
2082	4506
2083	2164
2083	2612
2083	3220
2083	3299
2083	3464
2083	4215
2083	4515
2083	4954
2084	2100
2084	2424
2084	2800
2084	3240
2084	3529
2084	3669
2085	2546
2085	2736
2085	3285
2085	3877
2085	3997
2085	4526
2085	4879
2086	2319
2086	3805
2086	4212
2087	2202
2087	2779
2087	3018
2087	3026
2087	3684
2087	3825
2087	4680
2088	2408
2088	2709
2088	3180
2088	4192
2088	4921
2089	2805
2089	3550
2089	4214
2090	2630
2090	2912
2090	4268
2090	4568
2091	2145
2091	2674
2091	2760
2091	3046
2091	3217
2091	3335
2091	3351
2091	3670
2091	4532
2092	2413
2092	3156
2092	3688
2092	3986
2092	4110
2093	2171
2093	2330
2093	3279
2093	3603
2093	4006
2093	4022
2093	4529
2093	4618
2094	2970
2094	3031
2094	4082
2094	4169
2094	4181
2094	4586
2095	2736
2095	2960
2095	2967
2095	3139
2095	3359
2095	4013
2095	4445
2096	2401
2096	2615
2096	2732
2096	3927
2096	4360
2096	4608
2096	4900
2097	2664
2097	3420
2097	3615
2097	4602
2098	2130
2098	2389
2098	2754
2098	3274
2098	3375
2098	4567
2098	4739
2099	3387
2100	3006
2100	3048
2100	3496
2100	4733
2101	2181
2101	2246
2101	2334
2101	2483
2101	2988
2101	3791
2101	3889
2101	3906
2101	4321
2102	2111
2102	2543
2102	2821
2102	2878
2102	3894
2102	4285
2102	4627
2102	4710
2102	4965
2103	2509
2103	3446
2103	4540
2103	4749
2104	3707
2104	3761
2104	3996
2104	4767
2104	4778
2105	2232
2105	2648
2105	2872
2105	3268
2105	4070
2105	4140
2106	2518
2106	2522
2106	4300
2106	4485
2106	4777
2107	2260
2107	2299
2107	3057
2107	3358
2107	3829
2107	4724
2107	4759
2108	2435
2108	3561
2108	3649
2108	4006
2108	4094
2108	4486
2108	4940
2109	2132
2109	2595
2109	3731
2109	4157
2109	4178
2109	4243
2109	4810
2110	4511
2110	4760
2111	2416
2111	2538
2111	2916
2111	3486
2111	3781
2112	2358
2112	2692
2112	2960
2112	3153
2112	4301
2112	4435
2112	4588
2112	4692
2112	4906
2113	2634
2113	2848
2113	3414
2113	4052
2113	4316
2113	4703
2113	4799
2113	4915
2114	3209
2114	4041
2115	2956
2115	3384
2115	4005
2115	4187
2115	4337
2115	4496
2115	4722
2116	2282
2116	2436
2116	2831
2116	3764
2116	4398
2117	2316
2117	2360
2117	2435
2117	2445
2117	2660
2117	3287
2117	4160
2117	4197
2117	4207
2117	4312
2117	4320
2118	2226
2118	2410
2118	3713
2118	4348
2119	2636
2119	3703
2119	3966
2119	4294
2120	2705
2120	2809
2120	3074
2120	4622
2120	4717
2121	2385
2121	2734
2121	3816
2121	4655
2121	4914
2121	4934
2122	2234
2122	2386
2122	2402
2122	3215
2122	3974
2122	4667
2122	4766
2123	2241
2123	2521
2123	3047
2123	3101
2123	3247
2123	3366
2123	3404
2123	4701
2124	3293
2124	4236
2124	4277
2125	2223
2125	2782
2125	2789
2125	2860
2125	3621
2125	4141
2125	4287
2125	4666
2126	2309
2126	2807
2126	3140
2126	3529
2127	2224
2127	2297
2127	3484
2127	4637
2127	4776
2128	2133
2128	2155
2128	2581
2128	3510
2128	3622
2128	4390
2128	4490
2129	2664
2129	3165
2129	4184
2129	4300
2129	4884
2130	2224
2130	3744
2131	2410
2131	4445
2131	4992
2132	2189
2132	2286
2132	2362
2132	2424
2132	2451
2132	2780
2132	2986
2132	3168
2132	3434
2132	4091
2132	4321
2132	4657
2133	2276
2133	2844
2133	3499
2133	3515
2133	4971
2134	2474
2134	2521
2134	2720
2134	2948
2134	3617
2134	4468
2135	2512
2135	2580
2135	3159
2136	2240
2136	2378
2136	3266
2136	3649
2136	4127
2136	4362
2136	4594
2137	4470
2137	4555
2138	2235
2138	2728
2138	2987
2138	4693
2138	4940
2139	2491
2139	3343
2139	4082
2139	4505
2139	4767
2140	3919
2140	4087
2140	4823
2140	4892
2141	3146
2141	3346
2141	3377
2141	4812
2142	3435
2142	4667
2142	4834
2142	4856
2143	2642
2143	2923
2143	3182
2143	3779
2143	4424
2143	4446
2143	4718
2143	4906
2144	2376
2144	2842
2144	3608
2145	3197
2145	4122
2145	4152
2145	4159
2146	2772
2146	3753
2146	4148
2147	2888
2147	3333
2147	3391
2147	4483
2148	2262
2148	3656
2148	3809
2148	4085
2148	4096
2148	4513
2148	4854
2149	2262
2149	2379
2149	4344
2149	4416
2149	4451
2149	4970
2149	4989
2150	2330
2150	3771
2150	3951
2150	4199
2150	4211
2150	4350
2150	4489
2150	4540
2150	4782
2151	2748
2151	3301
2151	3677
2151	4428
2151	4619
2152	2626
2152	2854
2152	3792
2152	4042
2152	4289
2153	2412
2153	2543
2153	3354
2153	3434
2153	3692
2153	3783
2153	4153
2153	4530
2153	4602
2153	4748
2154	2203
2154	3552
2154	3634
2154	4036
2155	4049
2156	2832
2156	2914
2156	3554
2156	3971
2157	2421
2157	2588
2157	2957
2157	3700
2157	3746
2157	4147
2158	2729
2158	3038
2158	3080
2158	3295
2158	3397
2158	3716
2158	4590
2158	4961
2159	2724
2159	3175
2159	3216
2159	3628
2159	3654
2159	3655
2159	3885
2159	3917
2159	4248
2159	4355
2160	3326
2160	3631
2160	3847
2160	3985
2160	4094
2160	4346
2161	2845
2161	3778
2161	4072
2161	4256
2162	2359
2162	3160
2162	3402
2162	4169
2162	4428
2163	2772
2163	2990
2163	3599
2163	4317
2163	4360
2163	4643
2164	2535
2164	2792
2164	4934
2165	2292
2165	2711
2165	2766
2165	3105
2165	3315
2165	3876
2166	2800
2166	3032
2166	3077
2166	3242
2166	3450
2166	4358
2166	4447
2167	2378
2167	3736
2167	3741
2167	4225
2167	4518
2167	4587
2168	2216
2168	3216
2168	3340
2168	4774
2168	4938
2169	2787
2169	3123
2169	3871
2169	4845
2169	4880
2169	4896
2170	2459
2170	2737
2170	3152
2170	4436
2171	3087
2171	3216
2171	3876
2171	4029
2171	4595
2172	2227
2172	2668
2172	2970
2172	3826
2172	4264
2172	4927
2173	2385
2173	2750
2173	2932
2173	2953
2173	3265
2173	3341
2173	4292
2173	4355
2173	4633
2173	4766
2174	2764
2174	2845
2174	3452
2174	4161
2174	4534
2174	4599
2174	4661
2174	4844
2175	2196
2175	2523
2175	2570
2175	3392
2175	3603
2175	3808
2175	4513
2175	4599
2175	4672
2176	2232
2176	4291
2176	4773
2177	3360
2177	4643
2178	2199
2178	2586
2178	2963
2178	3716
2178	3987
2178	4523
2179	2480
2179	3697
2179	3953
2179	4991
2180	2811
2180	3336
2180	3677
2180	4036
2180	4264
2180	4361
2181	2253
2181	3593
2181	4199
2181	4369
2181	4540
2181	4988
2182	3369
2182	3683
2182	4646
2182	4688
2182	4908
2183	2261
2183	2900
2183	2911
2183	3458
2183	4556
2183	4839
2183	4856
2184	2990
2184	3215
2184	3680
2184	3838
2184	4570
2184	4995
2185	3160
2185	4865
2186	2546
2186	3926
2186	4143
2186	4215
2186	4250
2186	4660
2187	2458
2187	3928
2187	4259
2188	2658
2188	2873
2188	3802
2188	4087
2189	2423
2189	3158
2189	4543
2189	4545
2190	2439
2190	3143
2190	3479
2190	3578
2190	3662
2191	2911
2191	3457
2191	3747
2191	3898
2191	3904
2191	3954
2191	4281
2191	4671
2192	2944
2192	3355
2192	3554
2193	2757
2193	3205
2193	3331
2193	3849
2193	3943
2193	4500
2194	2248
2194	3007
2194	3333
2194	4840
2195	2767
2195	2891
2195	4367
2196	2537
2196	2939
2196	3541
2196	3904
2196	4463
2196	4578
2196	4625
2196	4794
2197	2279
2197	2509
2197	4476
2197	4656
2197	4923
2198	2244
2198	2885
2198	3128
2198	3605
2198	3884
2198	4806
2199	3472
2199	3638
2199	4148
2199	4528
2200	2298
2200	2768
2200	3069
2200	3641
2200	3964
2200	4333
2200	4406
2201	2827
2201	2861
2201	3253
2201	4574
2201	4763
2202	2368
2202	3407
2203	2340
2203	2436
2203	2625
2203	2671
2203	3087
2203	3242
2203	3326
2203	4028
2203	4240
2203	4638
2203	4793
2204	2298
2204	2847
2204	2969
2204	3872
2205	2213
2205	4613
2205	4863
2205	4875
2206	2986
2206	3085
2206	3086
2206	3209
2206	3540
2206	4148
2206	4171
2206	4834
2207	2680
2207	3241
2207	3707
2208	3228
2208	3491
2208	3511
2208	3705
2208	3795
2208	4496
2209	2338
2209	3076
2209	3098
2209	4055
2210	3183
2210	4875
2211	2945
2211	3128
2211	4160
2211	4651
2212	3899
2213	2667
2213	2825
2213	3305
2213	4468
2213	4561
2214	2622
2214	3268
2214	4084
2214	4405
2215	2570
2215	2655
2215	3208
2215	3491
2215	3558
2215	3869
2215	4287
2215	4500
2215	4547
2216	2555
2216	2691
2216	3127
2216	3758
2216	4506
2217	2862
2217	3024
2217	3755
2217	3835
2217	4441
2217	4853
2218	2287
2218	2597
2218	2779
2218	2962
2218	3064
2218	3321
2218	3751
2219	2577
2219	4612
2219	4622
2219	4885
2219	4989
2220	2326
2220	2573
2220	2596
2220	3313
2220	3455
2220	3967
2220	4783
2221	2733
2221	3300
2221	3535
2221	4966
2222	2566
2222	2580
2222	2613
2222	3573
2222	4229
2222	4266
2222	4691
2222	4859
2222	4924
2223	3837
2224	2300
2224	2645
2224	2751
2224	2848
2224	2953
2224	3373
2224	4983
2225	2314
2225	2872
2225	3104
2225	3988
2225	4558
2226	2280
2226	4418
2226	4595
2226	4661
2227	2552
2227	2846
2227	3286
2227	3933
2228	2930
2228	2947
2228	3028
2228	3317
2228	4198
2228	4521
2228	4878
2228	4882
2229	3041
2229	3213
2229	3885
2230	2321
2230	3201
2230	3526
2230	3633
2230	3667
2230	4176
2230	4283
2230	4917
2230	4974
2231	2896
2231	3122
2231	3216
2231	3779
2231	3803
2231	4184
2231	4797
2232	2969
2232	3429
2232	3581
2232	3913
2232	4255
2233	2487
2233	2619
2233	2712
2233	2789
2233	2951
2233	2987
2233	3593
2233	3700
2233	4983
2234	2629
2234	3418
2234	3435
2234	3812
2234	3994
2235	2618
2235	3953
2236	2387
2236	2476
2236	3285
2236	3505
2236	3965
2236	4369
2236	4614
2237	2695
2237	2872
2237	3053
2237	3363
2238	2623
2238	3020
2238	3421
2238	3487
2238	3558
2238	3882
2238	4183
2239	2397
2239	2534
2239	2916
2239	3268
2239	3836
2239	3889
2239	4007
2239	4517
2239	4667
2239	4670
2239	4767
2239	4821
2240	3435
2240	3810
2240	3970
2240	4208
2240	4555
2241	4095
2241	4188
2241	4347
2241	4524
2242	3817
2242	4327
2242	4671
2242	4912
2243	2449
2243	2615
2243	2957
2243	3857
2243	4114
2244	2558
2244	2924
2244	3140
2244	4208
2244	4209
2244	4512
2244	4857
2245	2497
2245	4081
2245	4128
2245	4279
2246	2365
2246	2616
2246	3228
2246	4872
2247	2320
2247	2728
2247	2793
2247	2844
2247	3730
2247	4080
2247	4314
2247	4640
2247	4703
2248	4060
2248	4185
2248	4683
2248	4889
2249	2868
2249	3282
2249	3356
2249	3482
2249	3736
2249	3956
2249	4027
2250	2395
2250	3130
2250	3574
2250	3647
2250	4053
2250	4531
2250	4547
2250	4550
2250	4723
2250	4956
2251	2696
2251	3133
2251	3385
2251	3665
2251	4460
2251	4927
2252	2778
2252	3338
2252	3493
2252	3570
2252	3700
2252	3953
2252	4368
2253	3384
2253	3488
2253	3576
2253	3731
2253	4635
2253	4726
2253	4854
2254	2428
2254	2483
2254	2697
2254	2903
2254	3235
2254	3725
2254	3960
2254	4940
2255	3695
2255	3839
2255	3982
2255	4357
2255	4424
2256	2273
2256	2844
2256	4156
2256	4259
2256	4354
2257	3113
2257	4289
2257	4293
2257	4385
2258	3307
2258	3492
2258	4255
2258	4532
2259	2803
2259	2850
2259	3486
2259	3544
2259	4859
2259	4948
2260	2347
2260	3923
2261	2549
2261	2925
2261	3322
2261	4167
2262	3153
2262	3344
2262	4493
2262	4691
2263	2996
2263	3651
2263	3679
2263	3860
2263	4511
2263	4755
2263	4806
2264	2882
2264	3155
2264	3641
2264	4048
2264	4193
2264	4526
2264	4692
2264	4756
2265	2298
2265	2317
2265	3142
2265	3268
2265	4048
2265	4116
2265	4234
2266	2340
2266	3125
2266	3556
2266	4213
2266	4757
2266	4862
2267	2376
2267	2559
2267	3203
2267	3416
2267	4019
2268	3670
2268	4180
2269	2957
2269	3434
2269	3689
2269	4284
2269	4687
2270	3268
2270	4400
2271	2984
2271	3064
2271	3480
2271	4003
2271	4584
2271	4803
2271	4814
2272	2411
2272	2987
2272	3423
2272	3563
2272	3690
2272	4091
2272	4130
2272	4797
2273	2331
2273	2599
2273	2754
2273	2968
2273	3485
2273	3492
2273	4037
2273	4371
2273	4378
2273	4629
2274	2280
2274	2320
2274	2543
2274	2563
2274	3014
2274	4198
2275	2868
2275	3086
2275	3242
2275	3381
2275	3803
2275	4243
2275	4595
2276	2296
2276	2310
2276	2499
2276	3587
2277	2668
2277	3231
2277	3240
2277	3853
2277	4174
2277	4352
2278	2853
2278	3163
2278	3651
2278	3880
2278	4468
2278	4954
2279	2928
2279	4517
2280	2907
2280	4150
2280	4519
2281	2322
2281	4198
2281	4373
2281	4561
2282	2567
2282	2610
2282	2767
2282	2965
2282	3074
2282	3338
2282	3855
2282	4287
2282	4598
2282	4632
2282	4902
2283	2598
2283	2615
2283	3592
2283	4153
2284	2510
2285	2677
2285	2990
2285	3082
2285	3405
2285	3489
2285	4024
2285	4070
2285	4153
2285	4290
2285	4859
2286	2816
2286	3464
2286	3991
2287	3014
2287	3243
2287	3737
2287	3898
2287	4532
2287	4588
2287	4655
2287	4677
2288	2756
2288	2927
2288	3288
2288	4744
2289	3477
2289	3609
2289	4695
2289	4908
2290	2538
2290	4050
2290	4149
2290	4218
2290	4340
2290	4565
2291	2371
2291	2391
2291	2411
2291	3393
2291	3878
2291	4081
2291	4251
2291	4400
2291	4677
2291	4847
2292	2341
2292	2652
2292	2688
2292	2732
2292	2824
2292	2890
2292	3359
2292	3493
2292	3603
2292	4120
2292	4176
2292	4818
2293	3465
2293	3507
2293	4575
2294	2473
2294	3134
2294	3186
2294	3306
2294	4408
2294	4759
2295	2683
2295	2721
2295	3324
2295	3627
2296	2687
2296	3827
2296	4076
2296	4213
2297	2716
2297	2795
2297	2941
2297	3250
2297	3816
2297	4089
2297	4100
2298	2626
2298	3695
2298	3860
2299	2792
2299	3355
2299	3630
2300	2323
2300	2350
2300	2837
2300	3728
2300	3898
2300	4086
2300	4948
2301	2711
2301	2726
2301	3859
2301	3953
2301	4581
2301	4645
2301	4802
2302	2424
2302	2448
2302	2482
2302	2491
2302	3054
2302	3758
2303	3114
2303	4428
2303	4648
2303	4729
2303	4853
2304	2508
2304	2526
2304	2737
2304	3136
2304	3516
2304	4165
2304	4341
2304	4509
2304	4562
2304	4658
2304	4903
2305	2630
2305	3057
2305	3845
2305	4235
2305	4604
2305	4620
2306	2398
2306	3177
2306	3593
2306	4228
2306	4769
2307	2935
2307	3011
2307	3616
2307	4749
2308	2328
2308	2994
2308	3430
2308	4798
2309	2452
2309	2886
2310	3399
2310	3455
2310	3664
2310	3697
2310	3745
2310	4567
2310	4578
2310	4769
2310	4771
2310	4912
2311	3342
2311	3700
2311	4023
2311	4115
2311	4952
2312	2950
2312	3412
2312	4012
2312	4134
2312	4502
2312	4891
2313	2758
2313	4659
2313	4782
2314	3128
2314	3625
2314	4260
2314	4627
2315	2842
2315	3132
2315	3154
2315	4054
2315	4377
2315	4632
2316	2408
2316	2495
2316	2789
2316	3009
2316	3201
2316	3222
2316	4132
2316	4731
2317	2462
2317	3524
2318	2412
2318	2626
2318	2815
2318	3267
2318	4891
2319	2421
2319	3556
2319	3856
2319	4592
2320	2780
2320	3872
2320	3936
2320	4067
2320	4532
2320	4570
2320	4746
2321	3392
2321	4157
2322	2386
2322	3341
2322	3445
2322	3584
2322	3875
2322	4964
2323	2488
2323	2663
2323	2991
2323	3294
2323	3416
2323	4902
2323	4927
2324	2958
2324	3071
2325	2437
2325	2914
2325	3941
2325	4390
2325	4757
2326	2451
2326	2994
2326	3496
2326	4888
2327	3153
2327	3407
2328	2435
2328	3059
2328	3535
2328	4039
2328	4152
2328	4186
2329	2769
2329	3244
2329	4247
2329	4701
2330	3457
2330	3694
2330	4329
2330	4894
2331	2570
2331	2633
2331	2755
2331	2828
2331	3183
2331	3376
2331	4737
2332	2424
2332	2621
2332	3014
2332	3026
2332	3194
2332	3579
2332	3831
2332	4328
2332	4329
2332	4831
2333	2771
2333	3404
2333	3439
2335	2535
2335	3020
2335	3207
2335	3327
2335	3602
2335	3990
2335	4100
2335	4208
2335	4477
2336	3382
2336	3634
2336	3641
2337	2765
2337	3461
2337	3579
2337	3629
2337	4206
2337	4642
2338	2433
2338	3023
2338	4394
2338	4599
2339	2675
2339	3158
2339	4714
2340	4094
2340	4163
2341	2809
2341	3729
2341	4008
2341	4466
2341	4853
2342	2423
2342	2533
2342	2630
2342	2818
2342	2925
2342	3101
2342	3179
2342	4022
2342	4073
2342	4736
2343	2380
2343	2432
2343	3459
2343	3879
2343	4564
2344	2962
2344	3318
2344	3516
2344	4643
2345	3719
2345	4190
2345	4548
2345	4789
2345	4850
2346	2476
2346	3487
2346	3489
2346	3522
2346	3957
2347	2545
2347	3128
2347	3200
2347	3632
2347	3784
2347	4001
2348	2959
2348	3075
2348	3218
2348	3329
2348	3477
2348	3499
2348	3623
2348	4727
2348	4923
2349	2581
2349	3520
2349	3541
2349	3638
2349	4634
2349	4952
2350	2654
2350	3082
2350	3234
2350	3913
2350	4065
2350	4213
2350	4420
2350	4702
2350	4834
2351	2478
2351	2910
2351	3103
2351	3546
2351	3806
2351	3912
2351	4285
2351	4744
2352	3490
2352	3741
2352	4053
2352	4205
2352	4538
2352	4542
2352	4752
2352	4942
2353	2425
2353	2878
2353	3510
2353	4380
2354	2502
2354	3669
2354	3738
2354	3884
2354	3975
2354	3984
2355	2371
2355	2623
2355	3330
2355	3827
2355	4712
2355	4746
2356	2381
2356	3285
2356	3934
2356	4535
2357	2637
2357	2948
2357	3223
2357	3558
2357	3724
2357	4406
2357	4829
2357	4852
2357	4952
2358	2497
2358	2681
2358	3081
2358	3403
2358	3632
2358	3709
2358	3904
2358	3999
2358	4196
2358	4249
2358	4335
2359	3386
2359	4768
2359	4805
2360	2669
2360	2950
2360	3792
2360	4064
2360	4468
2360	4789
2361	2464
2361	3120
2361	3625
2361	3725
2361	4480
2361	4511
2361	4726
2362	2672
2362	3384
2362	3886
2362	4233
2362	4240
2362	4972
2363	2960
2363	3980
2363	4444
2363	4664
2363	4800
2364	4384
2365	3210
2365	3329
2365	3373
2365	3940
2365	4372
2365	4929
2366	3137
2366	3563
2366	4004
2366	4216
2367	2481
2367	2641
2367	2964
2367	3345
2367	3890
2367	4506
2367	4664
2368	2762
2368	3369
2369	2684
2369	2867
2369	3102
2369	3652
2369	3701
2369	3801
2369	4121
2369	4359
2369	4824
2370	2372
2370	3110
2370	3328
2370	3885
2370	4799
2371	3452
2371	3544
2371	4452
2372	2705
2372	3165
2372	3602
2372	3753
2372	4464
2373	3069
2373	3408
2373	4146
2373	4214
2373	4459
2373	4495
2373	4713
2373	4972
2374	2775
2374	4172
2375	2950
2375	3115
2375	3211
2375	3458
2375	3978
2375	4300
2375	4870
2376	2641
2376	2721
2376	3531
2376	4040
2376	4413
2376	4662
2377	2958
2377	3917
2377	4252
2377	4603
2378	2415
2378	3241
2378	3555
2379	3591
2379	3790
2379	4262
2379	4878
2380	2494
2380	3319
2380	3354
2380	4451
2380	4478
2380	4553
2381	3510
2381	3668
2381	3867
2381	4619
2382	2816
2382	2898
2382	3048
2382	3910
2382	4011
2382	4454
2382	4486
2383	2386
2383	2652
2383	2680
2383	2715
2383	2754
2383	3289
2383	3317
2383	4760
2383	4778
2383	4988
2384	4005
2384	4310
2384	4466
2385	2910
2385	2979
2385	2993
2385	3104
2385	3117
2385	3215
2385	3221
2385	3450
2385	4182
2385	4374
2386	3811
2386	3998
2387	2869
2387	3618
2388	4579
2389	3382
2389	4108
2390	2413
2390	2756
2390	2969
2390	3302
2390	3337
2390	3506
2390	3523
2390	4407
2390	4483
2390	4540
2391	2681
2391	3414
2391	3488
2391	3977
2391	4530
2391	4607
2392	3201
2392	3811
2392	3825
2392	4497
2393	2525
2393	2545
2393	3448
2393	3675
2393	4590
2393	4766
2393	4956
2394	2899
2394	2940
2394	3181
2394	3873
2395	3423
2395	3676
2395	3774
2395	4167
2395	4222
2396	2911
2396	3065
2396	3233
2396	4028
2396	4482
2396	4754
2396	4978
2397	2403
2397	2611
2397	2912
2397	3088
2397	3498
2398	2443
2398	2569
2398	2628
2398	3141
2398	3528
2399	2973
2399	3775
2399	3935
2399	4137
2399	4230
2399	4551
2399	4750
2400	2658
2400	3020
2400	3759
2401	2510
2401	3205
2401	3230
2401	3273
2401	3756
2401	4322
2401	4345
2401	4574
2401	4854
2402	2528
2402	3727
2402	4285
2402	4781
2403	2487
2403	2961
2403	3617
2403	3786
2403	4121
2404	2685
2404	3306
2404	4310
2404	4905
2405	3067
2405	4171
2405	4413
2406	2715
2406	2894
2406	3100
2406	3464
2406	3583
2407	2704
2407	3188
2407	3677
2407	4408
2407	4974
2408	2695
2408	3030
2408	3539
2408	4044
2408	4425
2408	4509
2408	4913
2408	4920
2409	2663
2409	2707
2409	2936
2409	3052
2409	3291
2409	3549
2409	3992
2409	4240
2409	4325
2409	4394
2409	4663
2410	2627
2410	3533
2410	3974
2410	4019
2410	4639
2410	4683
2411	2613
2411	2807
2411	3349
2411	3751
2411	3884
2411	4123
2411	4140
2411	4735
2411	4804
2412	2482
2412	2917
2412	2986
2412	3114
2412	3209
2413	2835
2413	3390
2413	3755
2414	3437
2414	4492
2414	4956
2415	2521
2415	2780
2415	3007
2415	3103
2415	3985
2415	4827
2415	4863
2416	2537
2416	2672
2416	4022
2417	2668
2417	3256
2417	3457
2417	4094
2417	4110
2417	4587
2417	4788
2418	2603
2418	3488
2418	3636
2418	4303
2418	4666
2418	4917
2418	4951
2419	3069
2419	4176
2419	4273
2419	4293
2419	4767
2419	4789
2420	3031
2420	3962
2420	4681
2420	4746
2420	4845
2421	2789
2421	3503
2422	2702
2422	3053
2422	3127
2422	3689
2422	4217
2423	2832
2423	2895
2423	3360
2423	4184
2423	4732
2424	2951
2424	3130
2424	3276
2424	3419
2424	4359
2425	3466
2425	3674
2425	3926
2425	4006
2425	4463
2426	2775
2426	3373
2426	3712
2426	4612
2426	4965
2427	3131
2427	3645
2427	3913
2427	3929
2427	4375
2427	4456
2427	4767
2427	4852
2427	4964
2428	2588
2428	3098
2428	3165
2428	4809
2429	2473
2429	3199
2429	3346
2429	3721
2429	4150
2429	4355
2429	4464
2430	2581
2430	2701
2430	2759
2430	4587
2431	2595
2431	3431
2431	4059
2431	4367
2431	4382
2431	4465
2431	4706
2431	4733
2432	3090
2432	3337
2432	3671
2432	3869
2433	3810
2434	3864
2435	2905
2435	3888
2435	3930
2435	4547
2436	2927
2436	3472
2436	3684
2436	3722
2436	3993
2436	4068
2436	4082
2436	4297
2436	4381
2436	4686
2437	3256
2437	3573
2437	3673
2437	3715
2437	4721
2438	2623
2438	3420
2438	3919
2439	2463
2439	2792
2439	2813
2439	2935
2439	3207
2439	3902
2439	4248
2439	4547
2439	4653
2439	4699
2439	4891
2440	3114
2440	3178
2440	3259
2440	3848
2440	4250
2440	4319
2440	4734
2440	4960
2441	2828
2441	2937
2441	3172
2441	3527
2441	4000
2441	4020
2442	2569
2442	3121
2442	3122
2442	3262
2442	4195
2443	2514
2443	3076
2443	3652
2443	4075
2443	4502
2443	4631
2443	4739
2444	2802
2444	2979
2444	3011
2444	3514
2444	3606
2444	4456
2444	4491
2444	4620
2444	4621
2444	4953
2445	2475
2445	2890
2445	3205
2445	3289
2445	4250
2446	2861
2446	2911
2446	3115
2446	3320
2446	4470
2447	3633
2447	4451
2447	4636
2447	4689
2448	2566
2448	3667
2448	3677
2448	3808
2448	3864
2448	4681
2449	2988
2449	3426
2449	3755
2450	2915
2450	3069
2450	3606
2451	2712
2451	2798
2451	3773
2451	3830
2451	3986
2451	4045
2451	4545
2452	3694
2452	3800
2452	4793
2452	4932
2453	2501
2453	3087
2453	4372
2454	2494
2454	3369
2454	3472
2454	3653
2454	3833
2454	3856
2454	4040
2454	4048
2454	4287
2454	4735
2455	2733
2455	3202
2455	3231
2455	3347
2455	3394
2455	4309
2455	4880
2456	2492
2456	3595
2456	4138
2457	3292
2457	3637
2457	3641
2457	3848
2457	4802
2458	3548
2458	3719
2458	4184
2458	4317
2458	4570
2458	4918
2458	4945
2459	3410
2459	4091
2459	4737
2460	2466
2460	2788
2460	3272
2460	3934
2460	4061
2460	4577
2460	4866
2461	2561
2461	3105
2461	3294
2461	3424
2461	3511
2461	4013
2461	4238
2462	3165
2462	3407
2462	4271
2462	4373
2462	4532
2462	4798
2462	4799
2462	4911
2463	4580
2463	4770
2463	4974
2464	2643
2464	3093
2464	3164
2464	3315
2464	3343
2464	3655
2464	3664
2464	4570
2465	2880
2465	3684
2465	3686
2466	2834
2466	3484
2466	3691
2466	4300
2466	4568
2467	3009
2467	3204
2467	3307
2467	3740
2467	4196
2467	4219
2467	4947
2467	4963
2468	2803
2468	2842
2468	2879
2468	3273
2468	3373
2468	3931
2468	4164
2468	4357
2468	4806
2468	4937
2468	4978
2469	2540
2469	2661
2469	3121
2469	3160
2469	4806
2470	3038
2470	4323
2470	4541
2471	2555
2471	3941
2471	4016
2471	4426
2472	2499
2472	3311
2472	3344
2472	3915
2472	4201
2473	2876
2473	2950
2473	2976
2473	3612
2473	3917
2473	3987
2473	4257
2473	4314
2473	4548
2474	3105
2474	4479
2474	4704
2475	2686
2475	4081
2475	4928
2476	3046
2476	3317
2476	4064
2476	4268
2477	2549
2477	3283
2477	3330
2477	4239
2477	4276
2477	4632
2477	4941
2478	3289
2478	4126
2478	4575
2479	2903
2479	3526
2479	3596
2479	4428
2479	4672
2479	4702
2480	2569
2480	2726
2481	2733
2481	3008
2481	3793
2481	3880
2481	4426
2481	4563
2481	4699
2482	3109
2482	3731
2482	4055
2482	4529
2482	4762
2482	4890
2482	4951
2483	2940
2483	3763
2483	4159
2483	4818
2484	2604
2484	2873
2484	3240
2484	3463
2484	3761
2484	4833
2484	4855
2485	4020
2485	4259
2485	4304
2485	4468
2485	4570
2486	2564
2486	3084
2486	3116
2486	3600
2486	4159
2486	4689
2487	3528
2487	4038
2487	4643
2488	3114
2488	3868
2488	4139
2488	4577
2488	4793
2489	2513
2489	3491
2489	4559
2489	4805
2490	3237
2490	3440
2490	4856
2490	4928
2491	2694
2491	3026
2491	3349
2492	3058
2492	3589
2492	4092
2492	4210
2492	4953
2493	3027
2493	3655
2493	4136
2493	4320
2494	2542
2494	4467
2495	3037
2495	3442
2495	3457
2495	3597
2495	4638
2496	2609
2496	2650
2496	4432
2496	4813
2496	4992
2497	3033
2497	3538
2497	3967
2497	4821
2497	4882
2497	4930
2498	3066
2498	3151
2498	3632
2498	4208
2498	4884
2499	3035
2499	3840
2499	4556
2499	4651
2500	2674
2500	3043
2500	3293
2500	3779
2500	4529
2500	4690
2501	2668
2501	2741
2501	3052
2501	3055
2501	3121
2501	3337
2501	4287
2501	4750
2502	3562
2502	4760
2503	3929
2504	3112
2504	3455
2504	3679
2504	4253
2504	4982
2505	2757
2505	2869
2505	3615
2505	3622
2505	4582
2506	2542
2506	2627
2506	4163
2506	4317
2506	4431
2507	2510
2507	2837
2507	2934
2507	3094
2507	3367
2507	4965
2508	2986
2508	3769
2508	3803
2508	3827
2509	3093
2509	3416
2509	3446
2509	3530
2509	4237
2509	4612
2509	4818
2509	4992
2510	2522
2510	3223
2510	3644
2510	3849
2510	4080
2510	4846
2511	3229
2511	3356
2511	4357
2512	3247
2512	3382
2512	3516
2512	3594
2512	3732
2512	4187
2512	4379
2512	4783
2513	3373
2513	3572
2513	3628
2513	3652
2513	3745
2513	3770
2513	4819
2514	2778
2514	3206
2514	4294
2514	4825
2515	2525
2515	2592
2515	2703
2515	2847
2515	3174
2515	3729
2515	4701
2516	3194
2516	3423
2516	3458
2516	3590
2516	3716
2516	4019
2516	4196
2516	4201
2516	4719
2517	3080
2517	3416
2517	3554
2517	4534
2517	4623
2517	4800
2518	3005
2518	3242
2518	3598
2518	4179
2518	4700
2518	4845
2519	3142
2519	4603
2520	2534
2520	2543
2520	3286
2520	3544
2520	3764
2520	4992
2521	3040
2521	3104
2521	3996
2521	4075
2522	3781
2523	3032
2523	3480
2523	3671
2523	4414
2524	3219
2524	4354
2525	2991
2525	3159
2525	3300
2525	3566
2525	3752
2525	3947
2525	4278
2525	4671
2526	2612
2526	2697
2526	2892
2526	4676
2527	2736
2527	3007
2527	3498
2527	4061
2527	4843
2528	2810
2528	3512
2528	4052
2528	4262
2528	4446
2528	4816
2529	2912
2529	3180
2529	3508
2529	3827
2529	3980
2529	4144
2529	4221
2529	4222
2531	3322
2531	3355
2531	3957
2531	4024
2531	4120
2531	4581
2531	4873
2532	2675
2532	3456
2532	4054
2533	4586
2533	4711
2534	3146
2534	3652
2534	3902
2534	4012
2534	4985
2535	2614
2535	2941
2535	4321
2535	4501
2535	4533
2536	2654
2536	2828
2536	2935
2536	3548
2536	3727
2536	3874
2536	4008
2536	4042
2536	4139
2536	4169
2537	3093
2537	4203
2537	4691
2537	4732
2538	3213
2538	4819
2538	4894
2539	2662
2539	2981
2539	3114
2539	3426
2539	4386
2540	2615
2540	3733
2540	3852
2540	4423
2540	4659
2540	4761
2541	3289
2541	4463
2542	2575
2542	2773
2542	2802
2542	3280
2542	3910
2542	4381
2542	4909
2543	2970
2543	3122
2543	3964
2543	4377
2544	3500
2544	3841
2544	4139
2544	4182
2544	4200
2544	4542
2544	4625
2546	3271
2546	3363
2546	4515
2547	3018
2547	3724
2547	4016
2547	4221
2547	4614
2547	4899
2548	3342
2548	3611
2548	3870
2548	4226
2548	4346
2549	4174
2549	4838
2549	4858
2549	4931
2550	2758
2550	3271
2550	4656
2550	4817
2550	4823
2550	4865
2550	4912
2551	3067
2551	4114
2551	4394
2551	4481
2551	4973
2551	4976
2552	2989
2552	4098
2552	4472
2552	4748
2553	2909
2553	3275
2553	3596
2553	3601
2553	3661
2553	4926
2553	4994
2554	4129
2555	2732
2555	2865
2555	3650
2555	4148
2555	4580
2555	4778
2555	4994
2556	2827
2556	4213
2556	4348
2556	4436
2557	2690
2557	3446
2557	3646
2557	4612
2557	4943
2558	3544
2558	3853
2558	4277
2558	4813
2559	2631
2559	2713
2559	3401
2559	3422
2559	3735
2559	3817
2559	3827
2559	4024
2559	4813
2560	3342
2560	4055
2560	4517
2561	2968
2561	3013
2561	3356
2561	4522
2561	4610
2561	4840
2562	3027
2562	3331
2562	3566
2562	4175
2562	4228
2562	4232
2562	4686
2562	4831
2563	3073
2563	3075
2563	4415
2563	4726
2563	4860
2564	3160
2564	3304
2564	4008
2564	4490
2565	2585
2565	2930
2565	3239
2565	3686
2565	3745
2565	4514
2565	4600
2565	4601
2566	3343
2566	4102
2566	4670
2567	2724
2567	2767
2567	3139
2567	3992
2567	4759
2568	3296
2568	4342
2568	4774
2569	3114
2569	3240
2569	4161
2569	4573
2569	4725
2569	4924
2570	2689
2570	3306
2570	3457
2570	4311
2570	4455
2570	4961
2571	2858
2571	3022
2571	3121
2571	3789
2571	4315
2571	4850
2572	3215
2572	4084
2572	4745
2573	2968
2573	3207
2573	3680
2573	3784
2573	4556
2574	3575
2574	4680
2575	3004
2575	3193
2575	3549
2575	3554
2575	3719
2575	4094
2575	4501
2575	4571
2575	4590
2575	4687
2575	4736
2576	3089
2576	3091
2576	3724
2576	4383
2576	4510
2577	2638
2577	2884
2577	3540
2577	3955
2577	3979
2577	4685
2577	4912
2578	2611
2578	3340
2578	3550
2578	4851
2578	4879
2579	2715
2579	4563
2580	2780
2580	3824
2580	4243
2580	4396
2581	2867
2581	3603
2581	3978
2581	4737
2581	4754
2581	4813
2581	4978
2582	2631
2582	2998
2582	3652
2582	4717
2583	2814
2583	3531
2583	4767
2583	4979
2584	3126
2584	3286
2584	3539
2584	3671
2584	4135
2584	4136
2585	2977
2585	3269
2585	3759
2585	4583
2586	2746
2586	3780
2586	4078
2587	3110
2587	3449
2587	4014
2587	4748
2587	4989
2588	3707
2588	3816
2588	3883
2588	4280
2588	4958
2589	3064
2589	3252
2589	3689
2589	3716
2589	4149
2589	4465
2590	2591
2590	2820
2590	3363
2590	3702
2590	3704
2590	4157
2590	4324
2590	4508
2591	2637
2591	2779
2591	3338
2591	3560
2591	3861
2591	4115
2591	4264
2592	3511
2592	3955
2593	2655
2593	2657
2593	3070
2593	4569
2593	4752
2593	4920
2594	2733
2594	3454
2594	3464
2594	3938
2594	4237
2595	3306
2595	3594
2595	3641
2595	3793
2595	3928
2596	2921
2596	3018
2596	4668
2597	3498
2597	3607
2597	3628
2597	3904
2597	4254
2597	4446
2598	2685
2598	3044
2598	3053
2598	3163
2598	3406
2598	4617
2598	4876
2599	2934
2599	3239
2599	3486
2599	4599
2600	2840
2600	3061
2600	3362
2600	3792
2600	3851
2600	4057
2601	3080
2601	3222
2601	3459
2601	3465
2601	3770
2601	4159
2601	4556
2601	4564
2602	2847
2602	3617
2602	3627
2602	3763
2602	3969
2603	3174
2603	3279
2603	3322
2603	4311
2603	4913
2604	3570
2604	4282
2605	2625
2605	2661
2605	2774
2605	3442
2605	4704
2605	4973
2606	3556
2606	3573
2606	4760
2607	2731
2607	3064
2607	3435
2607	3666
2607	4755
2608	2790
2608	2806
2608	3199
2608	3490
2608	4144
2608	4469
2609	2828
2609	3705
2609	3967
2609	4027
2609	4435
2609	4438
2609	4513
2610	3579
2610	4487
2610	4496
2610	4873
2610	4884
2611	3636
2611	4662
2611	4804
2612	3171
2612	4669
2613	4803
2614	2678
2614	2816
2614	2869
2614	3012
2614	3213
2614	3308
2614	4055
2614	4542
2614	4591
2614	4675
2615	3939
2615	4334
2615	4546
2615	4789
2615	4978
2616	3053
2616	3270
2616	3811
2616	3815
2616	4252
2616	4281
2617	2825
2617	2932
2617	3029
2617	4322
2617	4899
2618	3179
2618	4047
2619	3408
2619	3421
2619	4163
2619	4241
2620	3134
2620	3838
2620	3876
2620	3974
2620	4448
2620	4695
2620	4741
2621	3057
2621	3368
2621	3574
2621	4269
2621	4500
2622	2837
2622	4683
2622	4818
2623	2944
2623	3449
2623	3797
2623	3867
2624	3029
2624	3330
2624	3633
2624	4007
2624	4467
2625	2918
2625	2965
2625	3135
2625	3672
2625	3737
2625	3743
2625	4061
2626	2741
2626	2746
2626	2961
2626	3083
2626	3371
2626	3823
2626	3918
2626	3995
2626	4140
2626	4498
2626	4938
2627	2774
2627	4352
2628	3898
2628	4080
2628	4141
2628	4202
2628	4864
2628	4965
2629	2762
2629	3415
2629	3696
2629	3708
2629	4690
2629	4967
2630	2955
2630	3737
2630	4433
2630	4575
2630	4964
2631	2879
2631	3559
2631	4582
2631	4953
2632	4689
2632	4732
2633	2672
2633	2777
2633	4019
2634	3019
2634	3210
2634	3318
2634	3878
2634	4502
2634	4782
2635	2799
2635	3073
2635	3074
2635	3464
2635	3627
2635	4219
2635	4718
2636	3807
2636	4780
2637	3113
2637	3420
2637	4307
2638	2853
2638	2906
2638	3295
2638	4613
2639	2857
2639	3733
2639	3904
2639	4497
2640	3012
2640	3309
2640	3897
2640	4494
2640	4724
2640	4871
2640	4880
2641	2649
2641	2651
2641	2803
2641	3041
2641	3557
2641	3579
2642	2854
2642	3150
2642	4111
2642	4114
2642	4403
2642	4476
2642	4661
2642	4842
2643	3076
2643	3438
2643	3483
2643	4673
2644	2652
2644	3613
2644	3886
2644	4062
2644	4155
2645	3579
2645	4089
2645	4902
2645	4993
2646	3311
2646	3848
2646	4405
2646	4787
2647	2881
2647	3101
2647	3639
2647	4209
2648	3117
2648	3598
2648	4872
2648	4927
2649	2851
2649	3198
2649	3438
2649	4875
2649	4910
2649	4928
2650	2898
2650	3057
2650	3999
2650	4061
2650	4414
2650	4538
2650	4775
2651	3266
2651	3376
2651	3659
2651	4245
2651	4655
2652	4051
2652	4331
2652	4430
2653	2707
2653	2867
2653	4729
2654	2760
2654	2844
2654	3703
2654	3936
2654	4918
2655	2933
2655	4033
2656	3992
2656	4503
2656	4814
2656	4917
2657	4276
2657	4293
2657	4906
2658	2963
2658	2970
2658	3010
2658	3611
2658	3873
2658	3967
2658	4009
2658	4273
2658	4654
2659	3012
2659	3578
2659	3795
2659	4095
2659	4428
2659	4607
2660	2704
2661	3093
2661	3299
2661	3372
2661	4030
2661	4267
2661	4955
2662	2780
2662	3228
2662	3980
2662	4170
2662	4241
2663	2907
2663	3118
2663	3458
2663	3777
2663	4901
2664	2987
2664	4208
2664	4625
2665	2945
2665	3891
2665	3928
2665	3955
2666	3117
2666	3588
2666	3782
2666	4373
2666	4733
2667	2906
2667	2915
2667	3954
2667	4543
2667	4869
2668	2682
2668	2774
2668	3180
2668	3896
2668	4139
2668	4212
2668	4521
2669	3422
2669	3630
2669	4955
2670	2828
2670	4064
2670	4563
2671	4471
2671	4538
2671	4670
2672	3172
2672	3511
2672	3589
2672	3626
2672	3702
2672	4101
2672	4498
2672	4574
2673	2727
2673	3475
2673	3616
2673	3657
2673	4060
2673	4249
2673	4726
2673	4924
2674	3079
2674	3386
2674	3667
2674	3833
2674	4009
2674	4191
2674	4979
2675	3163
2675	3349
2675	4369
2675	4480
2675	4574
2675	4742
2675	4852
2676	3121
2676	3296
2677	2946
2677	3206
2677	3273
2677	3538
2677	4104
2677	4389
2677	4668
2677	4931
2678	2806
2678	3691
2678	4403
2679	3026
2679	3249
2679	4109
2679	4161
2679	4701
2679	4737
2680	3461
2680	3491
2680	3503
2680	3661
2680	4703
2681	3221
2681	3828
2681	4443
2681	4620
2682	2794
2682	2802
2682	3679
2682	4500
2682	4594
2682	4731
2682	4823
2683	3349
2683	3734
2683	4767
2684	2854
2684	2907
2684	3078
2684	3103
2684	3368
2684	3998
2685	2883
2685	3283
2685	3619
2685	4285
2685	4849
2686	2831
2686	3089
2686	3477
2686	3803
2687	3178
2687	3981
2687	4315
2687	4345
2687	4387
2687	4677
2687	4795
2688	2988
2688	3854
2688	4549
2689	2923
2689	3812
2689	4138
2689	4146
2690	3748
2690	4992
2691	3214
2692	2773
2692	3812
2693	2839
2693	2914
2693	4267
2693	4309
2693	4367
2693	4409
2693	4789
2693	4856
2693	4903
2694	2882
2694	3074
2694	3289
2694	3743
2694	4094
2695	3253
2695	3391
2695	3508
2695	3600
2695	4092
2695	4220
2695	4362
2695	4521
2695	4899
2696	3054
2696	3502
2697	2919
2697	3154
2697	3504
2697	3698
2697	4182
2697	4631
2698	2775
2698	2833
2698	3592
2698	3999
2698	4021
2699	3644
2699	4322
2699	4739
2700	3151
2700	3446
2700	4062
2700	4177
2701	2954
2701	3170
2701	3401
2701	4072
2701	4591
2702	2921
2702	3101
2702	3174
2702	4116
2702	4486
2703	3536
2704	3248
2704	3338
2704	3767
2704	3799
2704	4275
2705	3431
2706	3149
2706	4955
2707	3424
2707	4078
2707	4353
2707	4770
2707	4921
2708	3615
2708	3727
2708	3890
2708	4051
2708	4527
2708	4985
2709	3024
2709	3164
2709	4291
2709	4743
2710	2860
2710	3152
2711	2812
2711	3097
2711	3179
2711	3402
2711	3744
2711	3785
2711	4345
2711	4596
2711	4864
2712	3016
2712	4813
2713	2872
2713	4601
2713	4900
2714	4976
2715	2961
2715	2978
2715	3286
2715	3899
2715	4724
2716	2931
2716	2938
2716	3136
2716	3201
2716	3247
2716	3319
2716	3705
2717	2979
2717	3609
2717	4084
2718	3580
2718	4189
2718	4971
2719	3162
2719	3378
2719	4861
2720	2909
2720	3100
2720	4507
2721	3416
2721	3502
2721	3881
2721	4144
2722	3723
2722	3756
2722	4323
2722	4516
2722	4843
2723	3527
2723	3736
2723	4012
2723	4255
2723	4510
2723	4546
2723	4561
2723	4873
2723	4911
2724	4810
2725	2750
2725	4112
2725	4207
2725	4526
2725	4709
2726	2760
2726	2964
2726	3003
2726	3755
2726	3990
2726	4669
2727	2771
2727	3705
2727	4649
2728	2742
2728	2774
2728	3111
2728	3525
2728	4536
2729	4009
2729	4449
2729	4551
2729	4927
2730	3707
2730	3976
2730	4053
2730	4523
2730	4548
2731	3837
2731	4124
2731	4320
2731	4433
2731	4708
2732	3386
2732	3855
2732	3930
2732	4316
2734	2833
2734	3509
2734	3513
2734	3695
2734	4250
2734	4616
2735	3187
2735	3226
2735	4424
2735	4566
2735	4838
2735	4889
2735	4912
2736	2842
2736	3524
2736	3878
2736	4944
2737	3205
2737	3308
2737	3510
2737	3685
2737	4511
2738	3352
2738	3607
2738	3806
2738	4552
2739	3010
2739	3590
2739	4617
2740	3558
2740	4800
2741	2810
2741	2961
2741	4581
2742	2824
2742	3208
2742	3472
2742	3564
2742	4340
2742	4360
2743	2772
2743	3370
2743	4013
2743	4117
2743	4590
2743	4948
2744	3521
2744	3881
2744	4424
2745	3019
2745	3117
2745	3532
2745	3900
2745	4277
2745	4381
2745	4383
2745	4694
2745	4825
2746	3054
2746	3279
2746	3455
2746	3872
2746	4440
2747	2856
2747	3021
2747	3367
2748	4006
2748	4114
2748	4235
2748	4358
2748	4890
2748	4920
2749	2936
2749	3993
2749	4184
2749	4549
2750	2988
2750	3405
2750	3533
2750	4255
2751	2764
2751	3298
2751	3972
2751	4486
2751	4941
2752	3555
2752	3561
2752	3601
2752	4128
2753	3073
2753	3478
2753	3487
2753	4367
2753	4678
2753	4983
2754	3049
2754	3499
2754	3739
2754	3776
2754	3796
2754	3931
2754	4701
2755	3228
2755	4785
2756	2926
2756	3480
2757	2853
2757	3997
2757	4182
2757	4994
2758	3192
2758	3222
2758	3308
2758	3573
2758	3842
2758	4541
2758	4586
2758	4657
2758	4725
2759	3238
2759	3438
2759	3586
2760	2844
2760	3314
2760	3991
2760	4102
2760	4108
2760	4120
2760	4695
2760	4850
2761	2845
2761	2929
2761	3430
2761	3877
2761	4063
2762	3738
2762	4462
2762	4819
2763	2810
2763	2901
2763	3047
2763	4256
2763	4336
2763	4471
2763	4609
2764	2780
2764	3088
2764	3618
2764	4305
2765	3085
2765	3192
2765	4621
2765	4737
2765	4741
2765	4926
2766	3401
2766	3970
2767	3108
2767	3275
2767	3745
2767	4275
2767	4506
2767	4630
2767	4689
2767	4707
2767	4757
2768	2801
2768	3648
2768	3928
2768	3992
2768	4484
2768	4751
2768	4917
2769	2913
2769	2985
2769	3321
2769	3974
2769	4481
2769	4653
2770	3149
2770	3775
2770	4087
2770	4542
2770	4839
2771	2922
2771	2987
2771	3152
2771	3377
2771	3437
2771	3541
2771	3608
2771	4989
2772	2891
2772	3412
2773	2933
2773	3202
2773	3282
2773	3365
2773	3383
2773	4171
2773	4429
2773	4602
2774	2979
2775	2880
2775	3266
2775	3984
2775	4169
2775	4193
2775	4579
2776	3899
2776	4036
2776	4584
2776	4901
2776	4905
2777	3105
2777	3332
2777	3578
2777	4423
2777	4668
2778	3578
2779	2798
2779	4452
2779	4548
2779	4980
2780	2966
2780	3565
2780	4073
2780	4150
2780	4381
2780	4654
2780	4803
2780	4809
2781	3078
2781	3260
2781	3482
2781	4425
2781	4547
2781	4817
2782	2980
2782	3318
2782	3604
2782	3988
2782	4006
2782	4144
2782	4555
2782	4586
2783	4305
2783	4375
2784	3178
2784	3189
2784	3392
2785	3153
2785	3447
2786	3160
2786	3684
2786	4141
2786	4288
2786	4511
2787	2830
2787	2925
2787	4286
2787	4890
2788	3002
2788	4090
2788	4091
2788	4294
2788	4345
2789	3048
2789	3073
2789	3146
2789	3354
2789	4777
2790	2814
2790	3083
2790	3666
2790	4092
2791	2891
2791	4722
2792	2979
2792	3494
2792	3644
2792	3676
2792	4008
2792	4176
2792	4761
2793	3316
2793	3457
2793	4129
2793	4198
2793	4239
2793	4728
2794	3240
2794	3347
2795	3089
2795	3175
2795	4040
2795	4433
2795	4925
2796	3383
2796	3508
2796	3921
2796	4075
2796	4083
2797	2850
2797	3041
2797	3566
2797	3787
2797	4118
2797	4428
2797	4432
2797	4799
2797	4899
2798	4828
2799	2988
2799	3075
2799	3110
2799	3271
2799	4192
2799	4236
2799	4812
2800	3154
2800	4654
2801	2975
2801	3733
2801	3793
2802	3155
2802	4215
2802	4279
2802	4520
2802	4904
2803	3165
2803	3456
2803	3540
2803	4491
2803	4611
2804	3099
2804	3633
2804	4314
2804	4501
2804	4596
2805	3307
2805	3603
2805	3684
2805	3834
2805	4837
2805	4858
2805	4868
2806	3836
2806	3848
2806	4373
2806	4490
2807	3112
2807	3166
2807	3176
2807	3293
2808	3115
2809	2861
2809	2921
2809	4337
2809	4479
2809	4579
2810	3284
2810	3660
2810	4120
2810	4331
2810	4440
2810	4643
2811	2855
2811	3021
2811	3292
2811	3792
2811	3993
2812	3331
2812	3674
2812	4227
2812	4656
2812	4735
2813	3373
2813	3633
2813	3978
2813	4157
2813	4160
2813	4364
2814	3125
2815	3239
2815	3778
2815	4714
2816	3346
2816	4481
2816	4897
2817	3034
2817	3598
2817	3701
2817	3864
2817	4495
2817	4509
2817	4535
2818	3195
2818	3790
2818	3921
2818	4096
2819	3873
2819	4042
2819	4451
2819	4858
2820	3033
2820	3949
2820	3978
2820	4917
2821	2880
2821	3128
2821	3582
2821	3916
2822	3203
2822	3423
2822	4040
2822	4183
2822	4275
2822	4859
2823	3116
2823	4261
2823	4911
2824	3833
2824	3973
2824	4801
2825	3036
2825	3111
2825	3645
2825	3755
2826	3116
2826	3351
2826	3481
2826	3685
2826	4136
2826	4214
2826	4399
2827	3290
2827	3743
2827	3854
2828	3033
2828	3245
2828	3558
2828	4395
2828	4452
2829	2856
2829	3025
2829	3554
2829	4289
2829	4946
2830	3101
2830	3416
2830	3645
2830	3646
2830	4106
2830	4633
2831	3220
2831	3808
2831	4005
2831	4263
2832	3197
2832	4261
2832	4438
2832	4877
2833	4226
2834	3045
2834	4286
2834	4584
2835	3109
2835	3457
2835	4666
2836	3226
2836	3250
2836	3955
2836	4419
2836	4709
2837	3381
2837	3456
2837	3906
2837	3983
2838	2923
2838	3179
2838	3228
2838	4034
2839	3026
2839	3648
2839	4192
2840	2967
2840	2985
2840	4442
2842	3384
2842	4185
2842	4959
2842	4980
2843	3018
2843	3128
2843	3497
2843	4397
2843	4639
2843	4930
2844	3682
2844	3821
2844	4169
2844	4575
2844	4676
2845	3170
2845	4082
2845	4340
2845	4407
2845	4408
2845	4422
2845	4856
2846	4277
2847	3177
2847	3365
2847	3513
2847	4114
2848	3138
2848	3350
2848	3460
2848	3880
2848	4293
2848	4356
2848	4483
2848	4964
2849	3066
2849	3745
2849	3808
2849	4103
2849	4761
2850	3164
2850	4120
2850	4152
2850	4466
2851	3386
2851	3964
2852	3364
2852	3870
2852	3977
2852	4302
2852	4453
2852	4713
2853	3434
2853	4446
2853	4634
2853	4871
2854	3503
2854	3772
2854	3900
2854	4070
2854	4464
2854	4950
2854	4978
2855	3594
2855	3889
2855	3898
2855	3949
2855	4222
2856	4030
2856	4308
2856	4539
2856	4890
2857	2964
2858	3395
2858	4557
2859	3257
2859	4062
2859	4168
2860	3144
2860	3458
2860	3592
2860	3625
2860	3870
2860	4080
2860	4763
2861	3289
2861	3588
2861	3837
2861	3882
2861	4077
2861	4202
2861	4573
2861	4983
2862	3156
2862	3328
2862	3411
2862	3822
2862	4369
2863	3136
2863	3599
2863	4118
2863	4717
2863	4778
2863	4958
2864	2927
2864	3111
2864	3138
2864	3168
2864	3243
2864	4809
2865	3128
2866	3225
2866	3843
2866	3850
2866	3964
2866	4364
2866	4450
2866	4929
2867	2978
2867	3167
2867	3348
2867	3382
2867	4335
2867	4375
2867	4468
2868	2933
2868	3657
2868	4391
2869	3627
2869	4945
2870	2983
2870	4434
2871	4023
2872	2993
2872	3562
2872	3919
2872	4595
2873	3797
2873	4349
2873	4398
2873	4551
2873	4694
2873	4764
2874	2888
2874	3198
2874	4690
2875	3132
2875	3215
2875	3918
2875	4000
2875	4680
2876	2926
2876	3507
2876	3563
2876	3919
2876	4325
2876	4991
2877	3560
2877	4114
2878	3496
2878	4847
2878	4989
2879	2966
2879	3106
2879	3297
2879	4474
2880	3868
2880	4141
2880	4277
2880	4306
2880	4483
2880	4901
2881	3147
2881	3643
2881	3654
2881	4349
2882	3208
2882	4112
2882	4328
2882	4331
2882	4776
2883	4590
2884	4186
2885	3652
2886	3153
2886	3598
2886	4213
2887	3501
2887	3645
2888	3337
2888	3673
2888	3895
2888	4248
2888	4309
2889	2952
2889	3518
2889	4027
2889	4160
2889	4464
2889	4572
2889	4922
2889	4977
2890	3830
2890	4494
2890	4507
2890	4853
2890	4854
2891	3769
2891	4125
2891	4551
2891	4590
2891	4623
2892	2900
2892	3007
2892	3056
2892	3968
2892	4360
2892	4436
2892	4479
2893	4096
2893	4111
2893	4409
2893	4724
2893	4772
2894	3240
2894	3270
2895	2984
2895	3004
2895	3093
2895	3212
2895	3249
2895	3305
2895	3561
2895	4085
2895	4521
2896	3169
2896	3599
2896	3642
2896	4541
2896	4648
2896	4769
2897	4165
2897	4269
2897	4967
2898	3023
2898	3696
2898	3702
2898	4170
2898	4558
2898	4641
2898	4763
2899	3195
2899	3645
2899	4009
2899	4184
2899	4326
2899	4631
2899	4647
2900	3448
2900	3715
2900	4149
2900	4816
2900	4833
2901	3241
2901	3697
2901	4218
2901	4222
2901	4343
2902	2976
2902	3187
2902	4894
2903	3398
2903	3859
2903	4921
2903	4933
2904	3628
2904	3991
2905	3241
2905	3391
2905	3420
2905	3603
2905	3857
2905	4643
2906	3014
2906	3030
2906	3083
2906	3600
2906	3935
2906	4049
2906	4251
2906	4503
2906	4678
2907	2979
2907	3690
2907	4128
2907	4311
2908	3804
2908	3849
2908	4177
2908	4477
2908	4704
2908	4788
2909	3099
2909	3126
2909	3165
2909	3237
2909	3798
2909	4342
2909	4907
2910	3222
2910	3384
2910	3596
2910	3654
2910	3818
2910	4029
2910	4184
2910	4391
2910	4980
2911	3091
2911	3615
2911	3690
2911	4582
2911	4602
2912	3554
2912	3804
2912	3952
2912	4341
2913	3844
2913	4229
2913	4400
2913	4766
2913	4861
2914	3772
2914	3800
2914	3868
2914	4393
2914	4855
2915	3933
2915	4171
2916	3768
2916	3972
2916	4149
2916	4758
2917	3073
2917	3456
2917	3813
2917	4133
2917	4299
2918	2949
2918	3691
2918	4228
2918	4651
2919	3317
2919	3760
2919	3828
2919	3890
2919	4650
2919	4684
2919	4709
2920	3379
2920	3851
2920	3937
2920	4682
2922	3034
2922	3966
2922	4756
2923	3693
2923	4710
2923	4840
2924	2949
2924	3012
2924	3067
2924	3124
2924	3309
2924	3899
2924	4128
2924	4314
2925	3336
2925	4424
2925	4906
2926	3380
2926	3618
2926	4516
2926	4894
2927	3945
2927	3972
2928	2974
2928	3376
2928	3459
2928	3511
2928	4231
2928	4316
2928	4523
2929	4051
2929	4079
2929	4670
2930	4193
2931	3117
2931	3807
2931	4417
2931	4530
2931	4817
2932	3616
2932	4049
2932	4875
2933	3099
2933	3773
2933	3905
2933	4288
2933	4591
2933	4867
2934	3502
2934	4132
2934	4681
2934	4866
2935	3392
2935	4146
2936	3078
2936	3454
2936	4099
2936	4542
2936	4637
2936	4798
2937	3019
2937	3060
2937	4235
2938	3115
2938	3118
2938	3495
2938	3857
2938	4167
2938	4323
2938	4377
2938	4397
2938	4551
2938	4888
2939	3399
2939	3865
2939	4110
2939	4844
2940	3101
2940	3274
2941	3217
2941	4243
2941	4806
2942	3410
2942	3693
2942	3945
2942	3962
2942	3969
2942	4595
2942	4836
2943	2967
2943	3295
2943	3998
2943	4937
2944	3204
2944	3827
2945	3402
2945	3674
2945	4318
2945	4638
2945	4736
2946	2959
2946	3507
2946	4586
2946	4736
2946	4869
2946	4910
2947	3902
2947	4028
2947	4661
2948	3048
2948	3344
2948	3348
2948	3964
2949	3199
2949	3258
2949	3509
2949	3563
2949	4361
2949	4439
2949	4816
2950	3114
2950	3546
2950	4057
2950	4780
2951	3436
2951	3562
2951	4697
2952	4148
2952	4788
2952	4833
2952	4903
2953	3353
2953	3500
2953	4219
2953	4447
2953	4675
2954	3069
2954	3234
2954	3494
2955	2980
2955	3625
2955	3769
2955	4005
2955	4135
2956	3741
2956	4009
2956	4098
2957	3050
2957	3182
2957	3383
2957	3568
2957	3803
2957	4178
2958	4106
2958	4181
2958	4185
2958	4287
2958	4311
2958	4493
2959	3489
2959	4036
2959	4956
2960	2975
2960	3204
2960	4048
2960	4444
2961	3109
2961	3151
2961	3390
2961	3976
2961	4008
2961	4264
2961	4433
2961	4973
2962	3021
2962	3251
2962	3411
2962	3967
2962	4198
2962	4682
2963	3409
2964	3448
2965	3297
2965	4507
2966	3317
2966	4416
2967	3408
2967	3636
2967	3709
2967	4072
2967	4295
2967	4486
2967	4537
2967	4679
2967	4738
2967	4870
2968	3921
2968	4836
2969	3043
2969	3757
2969	4054
2969	4464
2969	4815
2970	3110
2970	3231
2970	4720
2970	4825
2971	3773
2971	3900
2971	4334
2971	4595
2971	4960
2972	3618
2972	3656
2972	3658
2972	3970
2972	4484
2972	4595
2973	3098
2973	3129
2973	3350
2973	3673
2974	3840
2974	4332
2975	4074
2976	3071
2976	3865
2976	4052
2976	4463
2977	3097
2977	4577
2977	4592
2977	4791
2977	4833
2978	3315
2978	3542
2978	3878
2978	3968
2978	4626
2978	4867
2978	4993
2979	3933
2979	3980
2979	4925
2980	3166
2980	3287
2980	3595
2980	4080
2980	4401
2980	4715
2980	4923
2981	3606
2981	4114
2982	3199
2982	3553
2982	4140
2982	4323
2983	3127
2983	3827
2983	4566
2983	4682
2984	3216
2984	3595
2984	4240
2984	4377
2985	3616
2985	3642
2985	4114
2985	4218
2985	4399
2985	4544
2985	4843
2985	4923
2986	3007
2986	3626
2986	4369
2986	4718
2987	3010
2987	3246
2987	3524
2987	4238
2987	4677
2988	3516
2988	3539
2988	4177
2989	3076
2989	3785
2989	3928
2990	3130
2990	3242
2990	3460
2990	4085
2990	4315
2991	3300
2991	3942
2991	4561
2991	4597
2992	3017
2992	3645
2992	3861
2993	3034
2994	3909
2994	3988
2994	4762
2995	4650
2996	3073
2996	3546
2997	3398
2997	3561
2997	3831
2997	4477
2998	3554
2998	4190
2999	3306
3000	3469
3000	4108
3000	4297
3000	4525
3000	4802
3000	4806
3001	4890
3002	3274
3002	3282
3002	3669
3002	3925
3002	4210
3002	4305
3003	3005
3003	3541
3003	4118
3004	3240
3004	3551
3004	3600
3004	4146
3005	3029
3005	3401
3005	3478
3005	3993
3006	3926
3006	4137
3006	4693
3007	3434
3007	3519
3007	3797
3007	4105
3007	4343
3007	4380
3007	4457
3007	4836
3008	3513
3008	3584
3008	3802
3008	4130
3008	4142
3008	4234
3009	3289
3009	3817
3009	4108
3009	4491
3009	4529
3010	3767
3010	3826
3010	4077
3010	4204
3010	4297
3010	4802
3010	4812
3010	4888
3011	3095
3011	3660
3011	3997
3012	3122
3012	3854
3012	4506
3013	3409
3013	3506
3013	3550
3013	4164
3013	4303
3013	4625
3014	3095
3014	3148
3014	3268
3014	3673
3014	4259
3014	4737
3015	4614
3015	4645
3016	3573
3016	3586
3016	3739
3016	3896
3017	3089
3017	3632
3017	4018
3017	4786
3018	3164
3018	3404
3018	3641
3018	3783
3018	4156
3018	4267
3019	3358
3019	3373
3019	3746
3019	4000
3019	4068
3019	4187
3019	4892
3020	3203
3020	3433
3020	3656
3020	4097
3020	4289
3020	4534
3021	3050
3021	3092
3021	3318
3021	4137
3021	4263
3022	3046
3022	4270
3022	4719
3023	4452
3024	3827
3024	4448
3024	4651
3025	3478
3025	3641
3025	4384
3026	4026
3027	3425
3027	3932
3027	4000
3027	4584
3027	4878
3028	3222
3028	3513
3028	3933
3028	4473
3028	4888
3029	3109
3029	4669
3029	4891
3030	3942
3030	4454
3031	3444
3031	3555
3031	3920
3031	4023
3031	4095
3032	3088
3032	3506
3032	3606
3032	4326
3032	4505
3032	4690
3032	4747
3033	3202
3033	3297
3033	3511
3033	3574
3033	4455
3033	4624
3033	4647
3034	3461
3034	3487
3034	4765
3035	3154
3035	3896
3035	3903
3036	3935
3036	4486
3036	4980
3037	3430
3037	4141
3037	4903
3038	3478
3038	3540
3038	3993
3038	4297
3039	3225
3039	3272
3039	4456
3040	3134
3040	3333
3040	3775
3040	4028
3041	3296
3041	4195
3041	4688
3042	3060
3042	3456
3042	3685
3042	4990
3043	3309
3043	3745
3043	3872
3043	4029
3043	4762
3043	4957
3043	4985
3044	3280
3044	3957
3045	3641
3045	3720
3045	4243
3045	4303
3045	4927
3046	4767
3047	4544
3048	3162
3048	3300
3048	3474
3048	4366
3048	4409
3048	4753
3049	3127
3049	4234
3050	3123
3050	4070
3051	3054
3051	3077
3051	3407
3051	4133
3051	4775
3051	4788
3052	3535
3052	3593
3052	4210
3052	4626
3052	4835
3053	3054
3053	3136
3053	3164
3053	3256
3053	3851
3053	4872
3053	4890
3055	3425
3055	3778
3055	3922
3055	4256
3056	3292
3056	4059
3056	4403
3057	3108
3057	3150
3057	3156
3057	3263
3057	3493
3057	4419
3057	4610
3059	3197
3059	3323
3059	3360
3059	3562
3059	4259
3059	4648
3059	4722
3059	4868
3059	4899
3060	4186
3060	4417
3060	4872
3060	4935
3061	3068
3061	3566
3061	3680
3061	4293
3061	4306
3061	4679
3062	3334
3062	4190
3062	4434
3062	4495
3063	4555
3063	4774
3063	4992
3064	3091
3064	3657
3064	4183
3064	4518
3064	4616
3065	4779
3066	3077
3066	3197
3067	3780
3067	3979
3067	4626
3067	4692
3068	3376
3068	3724
3068	4976
3069	3980
3069	4931
3069	4945
3069	4970
3070	4116
3071	3167
3071	3251
3071	3253
3071	3289
3071	4567
3071	4716
3072	4455
3073	3136
3073	3404
3073	3529
3073	3837
3073	4642
3074	3201
3074	4329
3075	3218
3075	3305
3075	3881
3075	4068
3075	4215
3075	4734
3075	4862
3076	3424
3076	4302
3076	4362
3077	3410
3077	3612
3077	3634
3077	3679
3077	4524
3077	4946
3078	4440
3078	4488
3079	4720
3080	3464
3080	3705
3080	4696
3081	3099
3081	3779
3081	4583
3082	3429
3082	3623
3082	3810
3082	3885
3082	4490
3082	4923
3083	3093
3083	3169
3083	4420
3084	3606
3084	3684
3084	3822
3084	4591
3084	4597
3085	3241
3085	3697
3085	3890
3085	4545
3085	4572
3085	4685
3086	3428
3086	3446
3086	3540
3086	3683
3086	3726
3087	3099
3087	3506
3087	4383
3087	4533
3087	4751
3088	3393
3088	3978
3088	4547
3088	4810
3089	3799
3089	4382
3089	4569
3089	4837
3090	3790
3090	3888
3090	3917
3090	4067
3090	4191
3090	4222
3090	4255
3090	4353
3090	4403
3090	4471
3090	4758
3090	4969
3091	4776
3092	3566
3092	3773
3092	4833
3092	4863
3093	3358
3093	3397
3093	4017
3095	3213
3095	3890
3095	4239
3095	4646
3095	4684
3096	4252
3096	4923
3097	4154
3097	4306
3098	3694
3098	4057
3098	4169
3098	4656
3099	3623
3099	3639
3099	4488
3099	4525
3099	4901
3100	3480
3100	3669
3100	4236
3101	3102
3101	3470
3101	3587
3101	4382
3102	3493
3102	4648
3102	4952
3103	3606
3103	4042
3103	4348
3103	4462
3103	4765
3104	3519
3104	3610
3104	3787
3104	3917
3104	4035
3104	4048
3104	4304
3105	3190
3105	4506
3106	3364
3106	3727
3106	3817
3106	4381
3106	4616
3107	3724
3107	4172
3108	3125
3108	3313
3109	3148
3109	3337
3109	3969
3109	4060
3109	4226
3109	4657
3110	3144
3110	3453
3110	4389
3110	4486
3110	4578
3110	4698
3111	3667
3111	3944
3111	4641
3111	4959
3112	3426
3112	4268
3112	4287
3112	4573
3112	4615
3112	4638
3113	3218
3113	3239
3113	3538
3113	3624
3113	4214
3113	4308
3115	3198
3115	3224
3115	3272
3116	3242
3116	3327
3116	4098
3116	4781
3117	4406
3118	3478
3118	4257
3119	4341
3119	4786
3120	3480
3120	3544
3120	3869
3120	4983
3121	3718
3121	3807
3121	3821
3122	3534
3122	4097
3122	4154
3122	4186
3122	4390
3123	3598
3123	4002
3123	4811
3123	4882
3124	3659
3124	3991
3125	3546
3125	4581
3125	4678
3126	3441
3126	3577
3126	3848
3126	3954
3128	3701
3128	4461
3129	3160
3129	4284
3129	4741
3129	4842
3129	4923
3130	3663
3130	3859
3130	4373
3130	4681
3131	3409
3131	3580
3131	4851
3132	3498
3132	3499
3132	3748
3132	4368
3132	4993
3133	3668
3133	3817
3133	4403
3133	4664
3133	4900
3134	3154
3134	3249
3134	3829
3134	3884
3134	3964
3134	4535
3134	4895
3135	3311
3135	3319
3136	3187
3136	3786
3136	3833
3136	4106
3137	3311
3137	3314
3137	3690
3137	4466
3138	3156
3138	4112
3138	4425
3138	4441
3138	4652
3139	3461
3139	3745
3139	4655
3140	3153
3140	4307
3140	4449
3141	3526
3141	4047
3141	4401
3141	4411
3142	3531
3142	3851
3142	4216
3142	4408
3142	4994
3143	3343
3143	3392
3143	3492
3143	3873
3143	4342
3144	3319
3144	3964
3144	4109
3145	3206
3145	3441
3145	3956
3145	4461
3145	4762
3145	4920
3145	4995
3146	3322
3146	4572
3146	4936
3147	3722
3147	4173
3147	4396
3148	3290
3148	4046
3148	4154
3148	4658
3149	3353
3149	3536
3149	4108
3149	4674
3150	3750
3150	4346
3150	4832
3150	4918
3150	4989
3151	4918
3152	3206
3152	4268
3152	4512
3152	4760
3153	3907
3153	4076
3154	3805
3154	4022
3154	4622
3154	4738
3155	3470
3155	4208
3155	4608
3155	4848
3156	3882
3156	4097
3156	4442
3157	3596
3157	3858
3157	4018
3157	4933
3157	4975
3158	4677
3158	4831
3159	3285
3159	3318
3159	3396
3159	3505
3159	3632
3159	3788
3159	3911
3159	4109
3160	4121
3160	4180
3160	4419
3160	4508
3160	4929
3161	3209
3161	3255
3161	3481
3161	3506
3161	3837
3161	4127
3161	4855
3161	4994
3162	4091
3162	4205
3162	4683
3163	3950
3163	4137
3163	4237
3163	4310
3163	4397
3164	3616
3164	3785
3164	4100
3164	4465
3164	4533
3164	4742
3164	4821
3165	3570
3165	4135
3165	4220
3166	3181
3166	3207
3166	3718
3166	3868
3167	3408
3167	4314
3167	4594
3168	3831
3168	3997
3168	4592
3168	4655
3168	4994
3169	3711
3169	3927
3169	4007
3169	4850
3170	3669
3170	3996
3170	4786
3171	4438
3171	4582
3171	4613
3172	4229
3173	3564
3173	4127
3173	4510
3174	3514
3174	4198
3174	4237
3174	4240
3174	4283
3174	4481
3174	4883
3174	4916
3175	3399
3175	3401
3175	4041
3175	4387
3175	4461
3176	3216
3176	4312
3176	4424
3177	3699
3177	3877
3177	4642
3177	4898
3178	3528
3178	3621
3178	3905
3178	3977
3178	4085
3178	4824
3179	3605
3179	4211
3179	4557
3179	4728
3180	3619
3180	3846
3180	3914
3180	4409
3180	4760
3180	4986
3181	3514
3181	4121
3182	3338
3182	4020
3182	4117
3183	3946
3183	4147
3184	3223
3184	3531
3184	3748
3184	3954
3184	4320
3184	4738
3184	4908
3185	3283
3185	3642
3185	4019
3185	4133
3185	4274
3185	4648
3186	4676
3187	3664
3187	3831
3187	4222
3187	4331
3187	4769
3188	3338
3188	3386
3188	3485
3188	3675
3188	4131
3188	4881
3189	3992
3189	4173
3189	4991
3190	3205
3190	3693
3190	4229
3191	3279
3191	3464
3191	4003
3191	4219
3191	4455
3192	3516
3192	3845
3192	4121
3192	4846
3193	4322
3194	3486
3194	3506
3194	4818
3195	4327
3195	4518
3196	3841
3197	4556
3197	4858
3198	3779
3198	4723
3199	3320
3199	3664
3199	4177
3200	3812
3200	4413
3200	4942
3201	3326
3201	3502
3201	4587
3201	4777
3201	4965
3202	3325
3202	3358
3202	3962
3202	4836
3204	3312
3204	3722
3204	4269
3204	4488
3205	3247
3205	3479
3205	4043
3206	3280
3206	3354
3206	4696
3207	3634
3207	3796
3207	4084
3207	4425
3208	3514
3208	3795
3208	4578
3208	4731
3208	4782
3208	4869
3209	3430
3210	3218
3210	4628
3210	4973
3211	4552
3212	4455
3213	3520
3214	3723
3214	4595
3215	4140
3215	4242
3215	4694
3216	3614
3216	4780
3216	4781
3217	3776
3217	4886
3218	3421
3219	4508
3219	4683
3219	4773
3220	3331
3221	3234
3221	3561
3221	3998
3222	3531
3222	4103
3223	4452
3224	3281
3224	3497
3224	4501
3224	4516
3224	4837
3225	4001
3225	4517
3225	4764
3225	4927
3226	3282
3226	4807
3227	3982
3227	4158
3227	4178
3227	4559
3227	4827
3228	3573
3228	3708
3229	3295
3229	4477
3229	4704
3230	3653
3230	4448
3231	3471
3231	3570
3231	3662
3231	3998
3231	4403
3232	3564
3232	4039
3232	4431
3233	3587
3233	3882
3233	4459
3233	4940
3234	3704
3234	4240
3234	4781
3235	3769
3235	4260
3236	3538
3236	4159
3236	4172
3236	4601
3237	4272
3237	4342
3237	4655
3237	4718
3237	4947
3238	3789
3238	4303
3238	4681
3239	3572
3239	4941
3240	3496
3240	4587
3240	4780
3241	3256
3241	3884
3242	3615
3242	4321
3242	4369
3242	4972
3243	3480
3243	3877
3243	4115
3243	4587
3243	4623
3243	4625
3243	4781
3244	3558
3244	3897
3244	4580
3244	4705
3245	4315
3245	4992
3246	3403
3246	3583
3246	4240
3246	4257
3246	4273
3246	4298
3247	3316
3247	3506
3247	4184
3247	4186
3248	3309
3248	4552
3249	4938
3250	3528
3250	4042
3250	4570
3250	4623
3250	4640
3251	4198
3251	4826
3252	4188
3252	4294
3253	3260
3253	3569
3253	3698
3253	3869
3253	4036
3253	4661
3254	4364
3254	4938
3255	3840
3255	4210
3256	3298
3256	3357
3256	3421
3257	3348
3258	3350
3258	4047
3259	3299
3259	3760
3259	3847
3259	4230
3259	4304
3259	4742
3260	4618
3261	3596
3261	3742
3261	4485
3262	4332
3262	4652
3263	3512
3263	3746
3263	3812
3263	4012
3263	4572
3264	3443
3264	3483
3264	4437
3264	4869
3265	4548
3266	3811
3266	4774
3267	3916
3267	4981
3268	3768
3268	4332
3269	4399
3269	4576
3270	3393
3270	3967
3270	4465
3270	4844
3270	4950
3272	4831
3272	4844
3273	4193
3273	4793
3273	4809
3274	3442
3274	3452
3274	3862
3274	4754
3274	4850
3275	4022
3275	4218
3276	3287
3276	3657
3276	4385
3276	4572
3276	4802
3276	4859
3277	3947
3277	4550
3278	3526
3278	4717
3279	3365
3279	3532
3279	3987
3280	3322
3280	3349
3280	3931
3280	4044
3280	4105
3280	4369
3281	3605
3281	4615
3282	3291
3282	3540
3282	3965
3283	3336
3283	3869
3283	4052
3283	4548
3284	3342
3284	3754
3284	4312
3285	3608
3285	3852
3285	3862
3285	3901
3286	3768
3286	3896
3286	3948
3286	4311
3286	4447
3286	4745
3286	4885
3287	3489
3287	3683
3287	4024
3287	4108
3287	4743
3287	4891
3288	3567
3288	4471
3288	4789
3288	4900
3289	3591
3289	3683
3289	4290
3289	4691
3289	4717
3290	3418
3290	4075
3291	4014
3291	4204
3291	4257
3291	4696
3291	4984
3292	3329
3292	3629
3292	3902
3292	4941
3293	3309
3293	3595
3293	3844
3293	4760
3293	4898
3294	3319
3294	3617
3294	4774
3295	3312
3295	4142
3296	3959
3296	4108
3296	4334
3296	4614
3296	4738
3296	4778
3297	3495
3297	4625
3298	3441
3298	3887
3298	3986
3298	4248
3298	4294
3298	4339
3298	4543
3298	4696
3298	4979
3299	3305
3299	3666
3299	3715
3299	3879
3299	3992
3299	4584
3299	4698
3299	4945
3300	3638
3300	4413
3300	4471
3301	3612
3301	3812
3301	3825
3301	4351
3301	4419
3301	4911
3302	3990
3302	4284
3302	4591
3303	3617
3303	3783
3304	3738
3304	4012
3304	4047
3305	4646
3305	4738
3306	4095
3306	4414
3307	3993
3307	4111
3308	3575
3308	3787
3308	4098
3308	4179
3308	4603
3308	4892
3309	3617
3309	3625
3309	4145
3309	4904
3310	4752
3311	3517
3311	3759
3311	4127
3311	4152
3312	4136
3312	4870
3313	3347
3313	3465
3313	4150
3313	4627
3315	4330
3315	4624
3316	3336
3316	3454
3316	4247
3316	4438
3316	4545
3316	4688
3316	4736
3316	4808
3317	3575
3317	3740
3317	4321
3318	3344
3318	4200
3318	4354
3319	3390
3319	3490
3320	3592
3320	4251
3322	3529
3322	4700
3323	3596
3323	4234
3323	4278
3323	4852
3324	3450
3324	4048
3324	4317
3324	4547
3325	3508
3325	3695
3325	4383
3326	4042
3326	4640
3327	4896
3327	4973
3328	3477
3328	3529
3328	3697
3328	4269
3328	4546
3328	4914
3329	3806
3329	4059
3329	4476
3329	4514
3329	4825
3329	4920
3330	3422
3330	3791
3330	3890
3330	3963
3330	4231
3330	4508
3331	3682
3331	3732
3331	4036
3331	4084
3331	4472
3331	4807
3332	3394
3332	4416
3332	4895
3332	4995
3334	4527
3335	3505
3335	4321
3335	4663
3335	4673
3336	3520
3336	3892
3336	4068
3336	4253
3336	4266
3336	4419
3336	4484
3336	4733
3337	4124
3338	3454
3338	4380
3338	4652
3338	4891
3339	3540
3339	3561
3339	4180
3339	4321
3339	4387
3340	3359
3340	3418
3340	3591
3340	3881
3341	4270
3342	3422
3343	4431
3344	3532
3344	4046
3344	4802
3345	3861
3345	4235
3345	4790
3345	4822
3346	3472
3346	3797
3346	4072
3346	4355
3346	4767
3347	3814
3347	4503
3348	3763
3348	4051
3348	4114
3348	4728
3349	3455
3349	4620
3349	4731
3350	3412
3350	3649
3350	4618
3350	4632
3351	3693
3351	4111
3351	4321
3351	4439
3351	4669
3351	4952
3352	3531
3352	3888
3353	3470
3353	3497
3353	3669
3353	4374
3354	3419
3354	3561
3354	3685
3354	4322
3354	4461
3355	3382
3355	3517
3355	4022
3355	4839
3355	4893
3356	3554
3356	3587
3356	3995
3356	4137
3357	3599
3357	3611
3357	4572
3358	3378
3358	3770
3358	4284
3358	4716
3358	4808
3359	3953
3359	4246
3360	4328
3361	3538
3361	3649
3361	4114
3361	4359
3361	4853
3362	3399
3362	4467
3362	4531
3363	4016
3364	4339
3364	4515
3364	4931
3365	4043
3365	4140
3365	4309
3365	4571
3365	4976
3366	3612
3366	3765
3366	4131
3367	4410
3367	4638
3369	3487
3369	3564
3369	4433
3369	4863
3370	4191
3370	4233
3370	4639
3371	3544
3371	3707
3371	3798
3371	3824
3371	4006
3371	4482
3372	4569
3373	4352
3373	4371
3373	4380
3373	4630
3374	4301
3375	4097
3375	4100
3375	4548
3376	3676
3376	4468
3377	4174
3377	4904
3378	3829
3378	4286
3379	3612
3379	3815
3379	4314
3379	4658
3380	3459
3380	3922
3380	4031
3380	4932
3381	3703
3381	3859
3381	4094
3381	4266
3381	4872
3382	3585
3382	4640
3383	3814
3383	3946
3383	3996
3383	4121
3383	4403
3384	3778
3384	4213
3384	4823
3384	4842
3385	4368
3385	4381
3386	3609
3387	3676
3387	4024
3387	4276
3387	4299
3388	3601
3388	4146
3389	3507
3389	4167
3390	3619
3390	4227
3390	4432
3390	4629
3390	4874
3391	4166
3391	4583
3391	4695
3392	3834
3392	4905
3392	4989
3393	3936
3393	4585
3394	3736
3394	3967
3394	4113
3394	4744
3395	3724
3395	4082
3395	4440
3395	4524
3396	3760
3396	3814
3396	4694
3396	4853
3397	3398
3397	4239
3397	4324
3397	4337
3397	4781
3397	4914
3398	3680
3398	4885
3399	3454
3399	3506
3399	4498
3400	4236
3400	4888
3400	4974
3401	3937
3401	4240
3401	4853
3403	3672
3403	3714
3403	4314
3404	4096
3404	4911
3405	3459
3405	3729
3405	4002
3405	4668
3406	4535
3406	4716
3407	4025
3408	3880
3408	4070
3408	4658
3409	4169
3409	4864
3410	3486
3410	3568
3411	4142
3411	4347
3411	4448
3411	4852
3411	4976
3412	3422
3412	4273
3412	4547
3413	3457
3413	4116
3413	4590
3413	4843
3414	3574
3414	3634
3414	3850
3414	3937
3414	3959
3414	4699
3414	4808
3415	4079
3415	4150
3415	4668
3416	3616
3416	3700
3416	3937
3416	3968
3416	4238
3416	4781
3417	3580
3417	3759
3417	4201
3418	3582
3418	3596
3418	3603
3418	3715
3418	3759
3418	3903
3418	3917
3418	4839
3419	3777
3419	3844
3419	4858
3420	3935
3420	4046
3420	4751
3421	4963
3422	3890
3423	3818
3423	4215
3423	4798
3423	4978
3424	3767
3424	4101
3424	4336
3424	4431
3424	4561
3424	4664
3426	4266
3426	4867
3427	3830
3427	4233
3427	4272
3427	4637
3428	3595
3428	3838
3428	4802
3429	3439
3429	4326
3429	4728
3430	3950
3431	4298
3432	3469
3432	3601
3432	4668
3433	3737
3433	4886
3434	3501
3434	3556
3434	4414
3434	4483
3434	4747
3435	3650
3435	4371
3435	4410
3436	4840
3437	4170
3437	4668
3438	3504
3438	4530
3438	4586
3438	4589
3438	4934
3439	3591
3439	4160
3439	4561
3440	3800
3440	4966
3441	4251
3441	4571
3441	4636
3441	4752
3442	3675
3442	4173
3442	4214
3442	4403
3442	4975
3443	3564
3443	4117
3443	4472
3444	4657
3444	4663
3444	4833
3445	3969
3445	4465
3445	4527
3446	3947
3446	4398
3446	4737
3447	4039
3447	4223
3448	3937
3449	3460
3449	3714
3449	3837
3450	3533
3450	4160
3450	4549
3451	3828
3451	4017
3451	4435
3451	4973
3452	3776
3452	3807
3452	4051
3452	4308
3452	4329
3452	4372
3452	4874
3453	4107
3453	4664
3453	4771
3454	3619
3454	4637
3455	4176
3455	4221
3455	4411
3455	4489
3455	4811
3456	4103
3456	4112
3457	3765
3457	4032
3457	4901
3458	3666
3458	3668
3458	3843
3458	3872
3458	3930
3459	3604
3459	3818
3459	3947
3459	4240
3459	4257
3459	4325
3459	4934
3460	4316
3460	4913
3461	3858
3462	3757
3462	3855
3463	4248
3464	3796
3464	4252
3464	4633
3464	4877
3465	4201
3465	4750
3466	3857
3466	4078
3466	4346
3466	4926
3467	3532
3467	3574
3467	3633
3467	4748
3468	3940
3468	4091
3468	4315
3469	4128
3469	4242
3469	4375
3469	4551
3469	4954
3470	4308
3470	4630
3471	3756
3471	4109
3471	4566
3471	4657
3472	3878
3472	4431
3472	4502
3473	3962
3474	4012
3474	4190
3474	4787
3475	3929
3475	4355
3475	4654
3475	4709
3475	4822
3476	3512
3476	3828
3476	4063
3476	4266
3476	4330
3476	4430
3476	4604
3476	4652
3476	4745
3477	3934
3478	4397
3480	3521
3480	3955
3480	4202
3481	4707
3481	4799
3482	3531
3482	3607
3482	3644
3482	3769
3482	3949
3482	4196
3482	4677
3482	4809
3482	4898
3483	4554
3484	3667
3484	4607
3485	4081
3485	4834
3486	4770
3487	3558
3487	4030
3487	4041
3487	4129
3488	3741
3488	3884
3488	4910
3489	4756
3489	4847
3489	4878
3489	4958
3489	4969
3490	4411
3490	4824
3490	4934
3491	3775
3491	4363
3491	4368
3491	4431
3492	3510
3492	3968
3492	4395
3492	4776
3493	4119
3493	4141
3493	4304
3493	4602
3494	3728
3494	3972
3494	4530
3494	4723
3496	3623
3496	4332
3497	3785
3497	3929
3498	3618
3498	3741
3498	4008
3498	4121
3499	3961
3499	4045
3501	3884
3501	4628
3501	4934
3502	4802
3502	4872
3503	4923
3503	4987
3503	4990
3504	3568
3504	3932
3504	4963
3505	3695
3505	3913
3505	4152
3506	4038
3506	4200
3506	4225
3507	3630
3508	4581
3508	4891
3509	4982
3510	3931
3510	3998
3510	4870
3510	4966
3511	3782
3511	3964
3512	3535
3512	3890
3512	3985
3512	4002
3512	4880
3513	4178
3513	4251
3514	3962
3514	4798
3516	4184
3516	4479
3516	4864
3516	4881
3517	4654
3517	4967
3518	3974
3518	4054
3518	4156
3518	4435
3519	3873
3519	4244
3519	4340
3520	4014
3520	4171
3520	4187
3520	4231
3520	4305
3520	4744
3521	3591
3521	4258
3522	4381
3523	4668
3523	4979
3524	4498
3524	4685
3525	4317
3525	4857
3526	3566
3527	3585
3527	3778
3527	4284
3528	3691
3528	4146
3528	4599
3528	4649
3529	3744
3529	4260
3529	4588
3529	4955
3529	4979
3530	3952
3530	4564
3530	4680
3530	4989
3531	4381
3532	3838
3532	4207
3532	4560
3533	3649
3533	3713
3533	3812
3533	4054
3533	4923
3534	3748
3534	4224
3535	3855
3535	4028
3535	4823
3536	3578
3536	4238
3536	4730
3537	3804
3537	4530
3537	4844
3538	4805
3538	4979
3539	4173
3539	4679
3540	4290
3540	4399
3541	4471
3542	4082
3542	4084
3543	4084
3543	4226
3543	4483
3543	4610
3544	3906
3544	4363
3545	3888
3545	3912
3545	3937
3545	4243
3545	4384
3546	3882
3547	3716
3547	4180
3548	4791
3548	4973
3550	4099
3550	4963
3551	3643
3551	4354
3551	4737
3552	3927
3552	4601
3552	4732
3553	3994
3553	4331
3553	4609
3556	3822
3556	4103
3556	4210
3556	4273
3556	4275
3556	4796
3557	3571
3557	4724
3558	4121
3558	4589
3559	4119
3560	3791
3560	3889
3560	4874
3561	3834
3561	4808
3562	3725
3562	4832
3563	3566
3563	3695
3563	4019
3564	3632
3564	4187
3564	4934
3565	4192
3565	4696
3566	4722
3567	3701
3567	3745
3567	3795
3567	3876
3567	4325
3567	4547
3567	4639
3568	4051
3568	4392
3568	4448
3568	4706
3569	3752
3569	4338
3569	4393
3569	4497
3570	4229
3570	4495
3571	4146
3572	4158
3572	4992
3573	4264
3573	4697
3573	4784
3573	4949
3574	3817
3574	3895
3574	4226
3574	4302
3574	4378
3574	4652
3575	4113
3575	4496
3576	3715
3576	4960
3578	3673
3579	4079
3579	4840
3580	4078
3581	4392
3581	4765
3582	4186
3582	4891
3583	3746
3583	3917
3583	4233
3583	4275
3583	4767
3584	4117
3584	4123
3584	4161
3584	4847
3584	4849
3585	3589
3585	3706
3585	3982
3585	4207
3585	4320
3585	4588
3586	4269
3586	4866
3587	4251
3588	3674
3588	3781
3589	4655
3590	3811
3590	4487
3591	4374
3591	4558
3591	4597
3591	4994
3592	3930
3593	3627
3594	3785
3594	4556
3594	4819
3595	3701
3595	3815
3595	4054
3595	4161
3595	4239
3595	4374
3595	4821
3596	4028
3596	4234
3596	4624
3597	4119
3597	4382
3598	3709
3598	4000
3599	4296
3601	3883
3601	4888
3601	4902
3603	3784
3603	4730
3604	4014
3604	4326
3604	4515
3605	4885
3605	4944
3606	4419
3606	4624
3607	3765
3607	3870
3607	4751
3608	3963
3608	4126
3608	4242
3608	4603
3608	4732
3608	4735
3608	4937
3609	4234
3610	3868
3610	4079
3610	4249
3611	3761
3611	4090
3611	4360
3611	4945
3611	4970
3612	4014
3612	4037
3612	4415
3612	4833
3613	4180
3614	4791
3615	3655
3615	4198
3615	4510
3616	3783
3616	4710
3616	4972
3617	4098
3619	4174
3620	3789
3620	3951
3620	4385
3620	4644
3621	3667
3621	3746
3621	4623
3621	4771
3622	4267
3622	4775
3622	4856
3623	3856
3623	4008
3623	4768
3624	3894
3624	4349
3625	3868
3625	4194
3625	4821
3626	4277
3626	4486
3626	4973
3627	3829
3627	3997
3627	4435
3627	4843
3628	3763
3628	4193
3628	4203
3628	4815
3629	3807
3629	4522
3630	3713
3630	3873
3630	4021
3630	4728
3631	3825
3631	4140
3631	4278
3631	4870
3632	4677
3632	4806
3633	3679
3633	3691
3633	3834
3633	4102
3633	4517
3633	4932
3633	4973
3634	3848
3634	4214
3634	4287
3634	4622
3635	4015
3635	4360
3636	4111
3636	4318
3636	4434
3637	4180
3637	4230
3637	4387
3638	3812
3638	4019
3638	4397
3638	4742
3639	4291
3639	4630
3639	4820
3640	3871
3640	4274
3640	4486
3640	4538
3641	4271
3641	4501
3642	4259
3642	4331
3642	4629
3642	4950
3643	3992
3643	4217
3643	4573
3643	4595
3644	4647
3644	4684
3644	4924
3645	4830
3646	4210
3646	4802
3648	3689
3648	3780
3648	3950
3648	4351
3650	3750
3650	3794
3650	4819
3650	4928
3652	3946
3652	4040
3652	4343
3653	4593
3653	4794
3654	4186
3654	4378
3654	4542
3655	4649
3655	4851
3656	4121
3656	4411
3656	4763
3657	3984
3658	4911
3659	4166
3660	3907
3660	3974
3660	4058
3660	4847
3660	4932
3661	4232
3662	4530
3662	4703
3663	3875
3663	4182
3664	3910
3665	4816
3666	3921
3666	4032
3666	4101
3666	4130
3666	4843
3667	4578
3667	4647
3667	4917
3668	4186
3668	4558
3668	4626
3668	4984
3669	4437
3669	4443
3669	4924
3670	4019
3670	4132
3671	4217
3671	4386
3672	4507
3672	4821
3672	4887
3672	4904
3673	4076
3673	4180
3673	4203
3673	4445
3674	3982
3674	4442
3674	4765
3674	4876
3675	4725
3675	4753
3676	4088
3676	4489
3677	3743
3677	3833
3677	4444
3677	4922
3678	4131
3678	4323
3679	4216
3679	4471
3680	4498
3681	4427
3681	4853
3681	4922
3682	3869
3682	3900
3682	4219
3682	4636
3684	4146
3684	4220
3685	4498
3685	4542
3686	4756
3687	3940
3688	3708
3688	3753
3688	4504
3688	4808
3689	3962
3689	4153
3689	4600
3689	4691
3691	4203
3691	4446
3691	4522
3691	4652
3692	3994
3692	4415
3692	4946
3693	3987
3693	4396
3693	4605
3694	3895
3694	4592
3695	4248
3696	4121
3696	4514
3697	4978
3698	4099
3698	4627
3699	4012
3699	4101
3699	4479
3699	4817
3700	3973
3700	4559
3700	4621
3700	4985
3701	3862
3701	4131
3701	4214
3701	4448
3703	4167
3704	4482
3704	4750
3705	4595
3706	4556
3706	4618
3706	4654
3707	4138
3708	4279
3709	4477
3710	4782
3711	4508
3711	4597
3712	3953
3712	4112
3712	4921
3713	4764
3713	4894
3714	4351
3716	4100
3717	4198
3717	4288
3717	4847
3717	4948
3718	4432
3718	4609
3718	4783
3719	4252
3719	4549
3719	4961
3720	3748
3720	4270
3720	4495
3721	4536
3722	3850
3722	3865
3722	4170
3723	4266
3723	4903
3724	4275
3724	4640
3724	4699
3725	3895
3725	4238
3725	4520
3726	3753
3727	3762
3727	4813
3727	4942
3728	3838
3728	3966
3728	4308
3729	3757
3729	4080
3729	4475
3729	4549
3730	4246
3730	4357
3730	4379
3730	4535
3731	4554
3732	3745
3732	4351
3732	4711
3733	4263
3733	4409
3733	4473
3734	3885
3734	4691
3734	4883
3734	4921
3735	4720
3735	4734
3735	4767
3736	4076
3736	4309
3736	4823
3737	3820
3738	3880
3738	3926
3738	4298
3738	4748
3739	3962
3739	4623
3739	4732
3739	4994
3740	3838
3740	3912
3740	4437
3740	4912
3741	4898
3741	4913
3742	3761
3742	4489
3743	4318
3743	4653
3743	4825
3743	4842
3744	4333
3744	4362
3745	3817
3745	4273
3745	4935
3746	3787
3747	4584
3747	4590
3747	4750
3747	4864
3748	4530
3748	4565
3749	4255
3749	4779
3749	4846
3749	4945
3750	3962
3750	4780
3751	3807
3751	4247
3751	4283
3751	4610
3753	4535
3753	4586
3754	3943
3754	3999
3754	4355
3754	4546
3754	4798
3755	3849
3755	3921
3755	3941
3755	4397
3755	4456
3755	4840
3756	4216
3757	3773
3758	3908
3758	4338
3758	4769
3759	4780
3759	4861
3760	4264
3760	4606
3760	4766
3760	4777
3761	3963
3761	4523
3762	3922
3762	4251
3762	4279
3765	4011
3765	4917
3766	3985
3766	4004
3766	4445
3766	4569
3767	3792
3767	4115
3767	4339
3767	4641
3768	4033
3768	4614
3768	4743
3769	4708
3770	3997
3770	4555
3771	3891
3771	4821
3772	4280
3772	4495
3773	4383
3774	3976
3775	4606
3775	4854
3776	4702
3776	4898
3777	4279
3778	4157
3778	4282
3778	4544
3778	4973
3779	3985
3779	4154
3779	4653
3780	4064
3780	4568
3780	4873
3781	3876
3782	4168
3782	4284
3783	4769
3784	3943
3784	3981
3784	4005
3785	3824
3786	3860
3786	4305
3787	4248
3787	4541
3787	4824
3788	3843
3788	4925
3790	4406
3790	4696
3791	4252
3791	4732
3792	4152
3793	4714
3794	4236
3794	4780
3795	4411
3795	4741
3796	4076
3796	4096
3796	4224
3796	4529
3796	4623
3798	4232
3798	4864
3799	3839
3799	3942
3799	4001
3799	4232
3800	3871
3800	3991
3800	4116
3800	4621
3801	4636
3802	4353
3803	3984
3803	4624
3803	4924
3804	4454
3804	4736
3805	3837
3805	4737
3806	4292
3807	4045
3807	4189
3807	4591
3808	4001
3808	4038
3808	4059
3808	4169
3808	4713
3809	3901
3810	4098
3810	4621
3811	4057
3811	4338
3811	4520
3811	4524
3811	4932
3812	4320
3812	4413
3812	4946
3813	3931
3813	3978
3813	4578
3813	4850
3813	4943
3814	4731
3815	3914
3815	4241
3815	4792
3816	4355
3816	4777
3817	3890
3817	4325
3818	3889
3818	4197
3818	4400
3818	4420
3820	4158
3820	4258
3820	4419
3820	4988
3822	4019
3823	3862
3823	4795
3824	4109
3824	4327
3824	4607
3824	4796
3825	4002
3825	4381
3825	4868
3826	4443
3826	4711
3827	4262
3827	4566
3827	4822
3828	4005
3830	4479
3831	4172
3831	4705
3832	3884
3832	4499
3833	4421
3833	4839
3833	4893
3834	4128
3834	4275
3834	4714
3834	4810
3835	4046
3835	4394
3835	4607
3835	4828
3836	4291
3836	4369
3836	4422
3836	4860
3836	4869
3837	4563
3837	4750
3837	4950
3838	4040
3839	3914
3839	4857
3840	3982
3840	4428
3840	4976
3840	4977
3841	4431
3843	3984
3843	3998
3843	4209
3844	4030
3844	4041
3844	4298
3844	4907
3845	3980
3845	4074
3845	4226
3845	4611
3847	4373
3848	4093
3848	4217
3848	4307
3849	4288
3849	4916
3850	4138
3850	4238
3850	4569
3851	4201
3851	4280
3851	4961
3852	4018
3852	4140
3852	4229
3852	4407
3852	4788
3853	4277
3853	4526
3853	4796
3854	4217
3854	4401
3854	4607
3855	4291
3855	4405
3855	4937
3856	4451
3856	4564
3856	4800
3857	4379
3857	4464
3857	4524
3857	4588
3857	4966
3857	4987
3858	4717
3860	4048
3860	4439
3861	4321
3861	4582
3862	3900
3862	4430
3862	4667
3862	4848
3862	4965
3862	4981
3863	4157
3863	4953
3864	4550
3864	4837
3866	4164
3866	4750
3867	4219
3867	4468
3867	4787
3868	4115
3868	4621
3868	4775
3869	4231
3870	4868
3871	4526
3871	4684
3872	4008
3872	4931
3873	4015
3874	4889
3875	4589
3875	4725
3877	4334
3878	4747
3878	4921
3878	4939
3879	4016
3880	4074
3880	4470
3880	4757
3881	4046
3881	4107
3881	4381
3881	4442
3881	4697
3881	4786
3882	4109
3882	4319
3882	4716
3882	4874
3883	4305
3883	4972
3884	4196
3884	4582
3884	4781
3885	3969
3885	4056
3885	4716
3886	4309
3886	4435
3886	4765
3888	4062
3888	4438
3889	4803
3889	4981
3890	4464
3890	4805
3890	4929
3890	4970
3890	4974
3891	4100
3891	4129
3891	4503
3891	4561
3891	4955
3891	4994
3892	4114
3892	4531
3893	4269
3894	4154
3894	4309
3894	4425
3895	3927
3896	4201
3896	4228
3896	4274
3896	4340
3896	4530
3896	4657
3897	4016
3897	4653
3898	4822
3899	4427
3899	4473
3899	4793
3900	4047
3900	4518
3900	4971
3901	3916
3901	4826
3901	4907
3902	3909
3902	4058
3902	4440
3902	4529
3902	4858
3904	4038
3905	3942
3905	4253
3905	4531
3905	4625
3905	4648
3905	4714
3905	4765
3906	4668
3907	4655
3908	4431
3909	3958
3909	4730
3910	4703
3911	4059
3911	4190
3912	4174
3912	4180
3912	4365
3912	4812
3912	4819
3913	4062
3913	4423
3914	4013
3915	3984
3915	4418
3915	4517
3915	4952
3916	4527
3916	4654
3917	4246
3917	4444
3917	4569
3917	4917
3918	4627
3918	4728
3918	4840
3919	4227
3919	4879
3920	4790
3921	4066
3921	4186
3921	4295
3921	4479
3921	4530
3922	4133
3922	4414
3922	4472
3922	4946
3923	3926
3923	4145
3923	4413
3924	4108
3924	4193
3924	4566
3924	4894
3925	4008
3925	4045
3925	4283
3925	4718
3925	4898
3927	4571
3927	4954
3928	4273
3929	3956
3929	4762
3930	4065
3930	4404
3930	4479
3930	4855
3931	4109
3932	4631
3933	4337
3933	4351
3933	4662
3933	4910
3934	4081
3934	4741
3935	4127
3935	4525
3935	4542
3937	4445
3937	4461
3938	3975
3938	4211
3938	4327
3938	4677
3938	4703
3939	4335
3939	4365
3939	4551
3939	4743
3940	4021
3940	4058
3940	4657
3941	4026
3941	4255
3941	4417
3942	4125
3942	4333
3943	4108
3943	4248
3943	4404
3944	4477
3944	4569
3944	4880
3946	4083
3948	4456
3949	3969
3949	4052
3949	4870
3951	4160
3952	4282
3953	4544
3953	4834
3953	4892
3954	3989
3954	4719
3955	4139
3955	4812
3956	4050
3956	4407
3956	4630
3956	4930
3957	4040
3957	4624
3958	4389
3958	4956
3959	4548
3959	4765
3960	4080
3960	4290
3960	4761
3960	4804
3960	4814
3962	4470
3962	4940
3964	4030
3964	4569
3964	4601
3964	4828
3965	4545
3965	4616
3965	4653
3965	4917
3965	4933
3967	3989
3967	4271
3967	4306
3967	4480
3967	4634
3968	4475
3968	4756
3968	4844
3968	4966
3969	4069
3971	4127
3971	4147
3971	4272
3971	4988
3972	4106
3972	4107
3972	4560
3973	4026
3974	4015
3974	4228
3974	4535
3975	4607
3975	4767
3976	4325
3976	4977
3977	4624
3978	4067
3978	4571
3980	4577
3980	4808
3980	4851
3980	4932
3981	4538
3982	4560
3982	4947
3983	4567
3983	4569
3983	4621
3983	4708
3984	4944
3986	4525
3987	4073
3987	4082
3987	4393
3988	4531
3988	4590
3988	4845
3989	4568
3990	4131
3990	4509
3990	4957
3991	4165
3991	4332
3991	4384
3992	4590
3993	4404
3995	4806
3996	4439
3996	4628
3996	4731
3996	4805
3997	4413
3998	4505
4000	4340
4000	4413
4000	4414
4000	4426
4001	4428
4003	4319
4003	4570
4003	4978
4004	4153
4005	4092
4006	4040
4006	4635
4007	4140
4007	4340
4008	4199
4008	4468
4008	4639
4008	4660
4009	4110
4009	4936
4009	4959
4010	4223
4010	4251
4010	4804
4010	4886
4010	4935
4011	4081
4011	4779
4012	4511
4012	4720
4013	4333
4013	4464
4013	4736
4014	4653
4014	4757
4014	4915
4015	4692
4015	4797
4016	4325
4016	4359
4016	4679
4016	4952
4017	4060
4017	4761
4018	4060
4019	4204
4019	4633
4019	4800
4019	4924
4020	4132
4020	4934
4021	4991
4022	4154
4022	4389
4022	4856
4023	4076
4023	4173
4023	4254
4023	4515
4023	4738
4023	4843
4024	4329
4024	4396
4024	4561
4026	4446
4027	4050
4027	4128
4027	4148
4030	4292
4030	4300
4030	4390
4030	4711
4031	4280
4031	4530
4032	4247
4032	4258
4032	4876
4033	4290
4034	4810
4036	4695
4036	4953
4037	4153
4037	4438
4037	4698
4037	4799
4038	4896
4039	4515
4039	4861
4040	4583
4040	4938
4041	4861
4042	4584
4042	4951
4043	4460
4043	4909
4045	4177
4045	4600
4046	4446
4047	4312
4047	4951
4048	4605
4049	4345
4050	4787
4050	4807
4051	4562
4053	4984
4055	4463
4055	4474
4055	4528
4055	4530
4055	4811
4056	4409
4057	4192
4057	4984
4059	4431
4059	4438
4060	4392
4060	4889
4061	4333
4061	4958
4062	4647
4062	4848
4062	4942
4063	4287
4063	4717
4063	4804
4064	4307
4065	4325
4067	4671
4067	4732
4068	4522
4068	4528
4068	4795
4069	4673
4069	4715
4070	4428
4071	4543
4071	4724
4072	4084
4072	4683
4073	4589
4073	4987
4074	4807
4074	4886
4075	4228
4075	4297
4075	4455
4076	4314
4076	4816
4076	4827
4077	4409
4077	4795
4078	4559
4078	4834
4079	4435
4079	4767
4079	4784
4080	4271
4080	4423
4080	4699
4080	4846
4081	4350
4081	4637
4082	4671
4083	4239
4083	4246
4083	4284
4083	4361
4083	4441
4083	4446
4084	4299
4084	4733
4085	4267
4085	4578
4086	4562
4086	4840
4086	4983
4087	4455
4089	4466
4090	4876
4090	4910
4091	4170
4091	4862
4092	4705
4092	4790
4092	4881
4093	4284
4093	4628
4094	4633
4098	4938
4099	4297
4099	4770
4099	4916
4100	4343
4100	4787
4101	4107
4101	4410
4101	4635
4101	4748
4101	4994
4102	4334
4102	4444
4102	4858
4102	4920
4103	4200
4103	4673
4103	4853
4104	4352
4105	4475
4106	4227
4106	4984
4107	4163
4107	4895
4109	4465
4111	4775
4111	4825
4113	4134
4115	4250
4115	4541
4115	4729
4115	4880
4118	4239
4118	4267
4119	4319
4119	4912
4120	4383
4122	4155
4122	4704
4124	4367
4124	4937
4125	4658
4126	4527
4126	4585
4127	4357
4127	4523
4127	4913
4128	4171
4128	4524
4128	4736
4128	4956
4132	4162
4133	4567
4133	4677
4133	4685
4134	4302
4134	4378
4134	4424
4134	4564
4134	4846
4135	4214
4135	4973
4136	4540
4136	4848
4137	4729
4138	4496
4138	4818
4139	4207
4139	4916
4140	4248
4140	4454
4140	4805
4140	4840
4141	4345
4141	4493
4141	4545
4141	4798
4141	4963
4144	4228
4146	4601
4146	4609
4146	4808
4147	4706
4149	4483
4149	4707
4149	4927
4150	4281
4150	4330
4150	4769
4151	4199
4151	4884
4152	4558
4152	4984
4153	4588
4155	4304
4155	4935
4156	4254
4156	4346
4156	4502
4156	4769
4157	4561
4157	4748
4158	4690
4158	4990
4159	4502
4160	4276
4160	4443
4160	4476
4161	4253
4161	4792
4162	4221
4164	4293
4164	4606
4165	4509
4165	4768
4165	4912
4165	4959
4167	4454
4167	4590
4167	4935
4168	4846
4169	4421
4170	4667
4173	4604
4174	4239
4175	4286
4175	4812
4176	4662
4177	4980
4178	4205
4178	4478
4178	4675
4178	4873
4179	4435
4180	4263
4180	4647
4180	4783
4181	4669
4181	4937
4182	4799
4184	4327
4184	4578
4184	4612
4184	4964
4185	4276
4186	4813
4187	4994
4188	4929
4189	4756
4189	4804
4190	4680
4191	4866
4192	4356
4192	4785
4192	4953
4192	4977
4193	4522
4194	4649
4194	4676
4194	4781
4194	4976
4195	4679
4196	4967
4198	4590
4198	4718
4199	4608
4199	4826
4200	4229
4200	4733
4201	4861
4203	4341
4204	4241
4205	4592
4205	4676
4205	4815
4206	4660
4206	4808
4207	4696
4208	4467
4209	4256
4209	4397
4209	4586
4212	4602
4213	4457
4214	4449
4214	4612
4214	4848
4214	4887
4214	4963
4215	4281
4217	4674
4218	4521
4218	4832
4218	4863
4219	4421
4219	4734
4220	4349
4220	4447
4220	4787
4220	4877
4222	4769
4223	4392
4223	4604
4224	4977
4225	4591
4227	4524
4228	4528
4229	4841
4231	4566
4232	4757
4232	4815
4233	4494
4233	4612
4235	4320
4235	4497
4235	4785
4236	4444
4237	4310
4239	4574
4240	4649
4240	4718
4243	4420
4243	4495
4243	4965
4244	4747
4245	4738
4246	4881
4247	4613
4249	4523
4250	4528
4252	4898
4253	4502
4253	4728
4253	4948
4254	4450
4254	4723
4254	4767
4254	4811
4256	4535
4257	4515
4257	4694
4258	4597
4259	4894
4260	4881
4260	4885
4261	4401
4261	4578
4261	4888
4262	4831
4263	4597
4263	4697
4263	4914
4264	4328
4264	4473
4264	4575
4264	4587
4264	4721
4265	4478
4265	4636
4267	4561
4267	4596
4270	4828
4270	4870
4270	4902
4270	4991
4271	4682
4271	4839
4272	4364
4274	4447
4276	4489
4276	4902
4276	4960
4277	4346
4277	4415
4277	4688
4279	4458
4279	4605
4282	4588
4284	4501
4285	4476
4285	4573
4285	4721
4285	4893
4288	4927
4289	4839
4291	4400
4291	4470
4291	4471
4291	4786
4291	4862
4293	4560
4295	4378
4296	4355
4297	4617
4298	4871
4300	4699
4301	4674
4302	4682
4305	4385
4307	4311
4307	4705
4307	4849
4309	4418
4309	4838
4309	4940
4309	4956
4313	4738
4314	4736
4314	4812
4315	4688
4315	4748
4316	4452
4321	4382
4321	4529
4322	4349
4322	4959
4323	4422
4323	4437
4323	4449
4325	4379
4325	4546
4326	4373
4327	4389
4327	4590
4327	4855
4327	4923
4329	4694
4329	4746
4330	4549
4331	4569
4331	4599
4335	4408
4335	4531
4336	4495
4336	4829
4337	4866
4339	4362
4341	4445
4341	4618
4342	4363
4343	4639
4344	4492
4344	4565
4344	4578
4347	4956
4348	4383
4349	4725
4349	4733
4350	4358
4350	4429
4350	4707
4351	4819
4354	4436
4354	4555
4354	4573
4355	4802
4357	4467
4357	4624
4357	4830
4359	4588
4359	4606
4359	4700
4363	4638
4363	4945
4364	4754
4364	4757
4365	4797
4367	4623
4370	4820
4371	4373
4371	4383
4371	4879
4372	4431
4372	4615
4374	4791
4375	4612
4376	4599
4376	4660
4377	4507
4377	4987
4379	4895
4380	4485
4381	4667
4381	4948
4382	4490
4386	4974
4387	4672
4387	4974
4388	4778
4389	4434
4389	4480
4389	4561
4389	4683
4389	4847
4391	4718
4391	4783
4391	4831
4393	4397
4394	4418
4394	4486
4395	4686
4397	4909
4399	4550
4399	4689
4400	4962
4402	4440
4402	4992
4404	4625
4406	4504
4406	4717
4406	4992
4407	4697
4407	4883
4409	4539
4409	4867
4410	4567
4412	4503
4414	4898
4416	4665
4417	4442
4417	4649
4419	4932
4420	4684
4421	4679
4423	4614
4423	4763
4424	4919
4425	4656
4425	4826
4426	4493
4428	4548
4428	4553
4430	4885
4431	4811
4431	4816
4432	4495
4432	4756
4432	4778
4433	4479
4434	4591
4436	4709
4438	4951
4439	4492
4440	4479
4440	4634
4440	4994
4441	4552
4441	4890
4442	4907
4444	4577
4444	4616
4446	4558
4447	4504
4447	4802
4448	4921
4450	4961
4451	4955
4453	4498
4454	4663
4455	4710
4456	4542
4456	4625
4457	4774
4457	4792
4458	4535
4458	4603
4460	4736
4462	4964
4464	4703
4465	4798
4466	4569
4466	4581
4466	4881
4468	4477
4468	4828
4471	4572
4471	4651
4471	4872
4471	4904
4475	4490
4477	4611
4477	4905
4480	4989
4481	4865
4482	4567
4484	4691
4484	4766
4484	4943
4485	4633
4485	4708
4485	4902
4486	4820
4488	4780
4488	4852
4489	4772
4492	4503
4492	4525
4492	4826
4492	4911
4494	4546
4494	4964
4496	4667
4497	4756
4499	4961
4500	4761
4501	4784
4503	4939
4504	4909
4508	4522
4509	4538
4509	4591
4509	4890
4510	4795
4511	4699
4516	4560
4519	4597
4520	4714
4521	4576
4524	4913
4525	4608
4526	4869
4526	4991
4527	4774
4528	4728
4528	4862
4531	4836
4532	4853
4533	4753
4534	4756
4535	4766
4536	4759
4537	4932
4538	4556
4538	4814
4538	4848
4538	4958
4540	4593
4540	4641
4540	4700
4540	4839
4541	4600
4541	4773
4542	4804
4543	4931
4544	4889
4545	4695
4546	4602
4547	4879
4547	4908
4551	4575
4551	4765
4551	4957
4553	4563
4554	4563
4555	4939
4556	4794
4556	4907
4557	4641
4558	4979
4559	4989
4560	4864
4560	4995
4561	4748
4562	4681
4563	4568
4563	4788
4564	4974
4565	4782
4565	4788
4566	4854
4567	4587
4567	4677
4569	4977
4570	4742
4570	4912
4571	4614
4572	4734
4576	4880
4579	4946
4580	4939
4581	4604
4581	4611
4581	4651
4581	4903
4582	4781
4582	4977
4585	4923
4587	4850
4588	4662
4588	4826
4588	4878
4588	4910
4591	4784
4591	4803
4591	4818
4595	4696
4596	4734
4598	4957
4599	4695
4600	4904
4601	4826
4604	4940
4605	4907
4606	4710
4606	4870
4607	4837
4608	4849
4609	4920
4610	4767
4610	4810
4611	4646
4611	4883
4612	4723
4614	4620
4614	4804
4618	4770
4620	4701
4622	4666
4622	4835
4622	4930
4624	4718
4624	4853
4627	4877
4628	4749
4629	4648
4629	4723
4629	4963
4630	4895
4630	4911
4631	4745
4631	4812
4631	4988
4632	4728
4632	4890
4634	4810
4634	4844
4635	4704
4635	4799
4637	4815
4638	4839
4639	4645
4642	4756
4644	4796
4645	4712
4645	4806
4648	4824
4651	4784
4653	4662
4654	4974
4656	4671
4656	4765
4656	4978
4657	4659
4658	4700
4658	4831
4659	4955
4660	4701
4660	4715
4660	4987
4662	4663
4669	4920
4671	4675
4671	4713
4673	4707
4674	4692
4674	4808
4678	4774
4679	4893
4686	4695
4686	4947
4691	4969
4692	4936
4693	4787
4694	4979
4697	4897
4698	4717
4700	4701
4700	4736
4701	4852
4701	4865
4703	4962
4704	4922
4711	4763
4717	4749
4717	4893
4718	4823
4724	4741
4726	4921
4728	4888
4732	4965
4733	4804
4734	4918
4737	4978
4738	4978
4739	4925
4739	4929
4743	4944
4744	4850
4750	4953
4752	4893
4752	4975
4754	4991
4755	4794
4757	4971
4758	4791
4760	4909
4761	4920
4761	4972
4763	4870
4763	4961
4764	4771
4765	4786
4766	4795
4766	4813
4770	4788
4770	4956
4770	4993
4778	4920
4779	4882
4780	4863
4782	4952
4784	4820
4784	4864
4784	4917
4785	4895
4786	4864
4791	4904
4792	4889
4798	4916
4801	4863
4801	4949
4802	4882
4807	4861
4809	4978
4810	4816
4811	4817
4812	4992
4815	4979
4818	4979
4819	4896
4828	4969
4829	4946
4842	4898
4842	4931
4854	4893
4855	4905
4858	4941
4858	4966
4859	4904
4866	4936
4866	4937
4874	4912
4874	4922
4882	4944
4883	4946
4888	4979
4893	4985
4896	4964
4900	4936
4905	4920
4911	4994
4916	4993
4929	4953
4931	4983
4976	4979
