0	121
0	387
0	2487
0	2854
0	3432
0	4004
0	4244
0	4386
1	225
1	2133
1	3231
1	4597
1	4691
2	1413
2	1860
2	3002
2	3007
2	3141
2	3610
2	3723
2	4367
3	334
3	1942
3	2682
3	3490
4	834
4	1054
4	2225
4	3713
5	1724
5	3139
5	4634
5	4675
6	2735
6	4807
7	2690
8	73
8	1574
8	1937
8	2438
8	3051
8	3187
8	3831
9	644
9	1427
9	2871
9	4722
10	3274
11	32
11	3043
11	3464
11	3697
12	1054
12	1423
13	1183
13	1684
13	3067
14	201
14	1182
14	3072
14	4673
15	3058
15	4373
15	4546
15	4663
16	69
16	113
16	4106
17	353
17	2330
17	4609
18	217
18	996
18	3278
19	2203
19	2855
19	2999
19	3030
19	3100
20	2377
20	3750
20	4684
21	2403
21	4577
21	4747
22	197
22	3375
22	3546
22	3915
23	1364
23	1555
24	2141
24	2342
25	122
25	4515
26	2867
26	3173
26	3281
27	287
27	3426
27	4841
28	322
28	3190
28	3374
28	4536
29	639
29	1525
29	1961
29	1992
29	3853
29	4189
30	1148
30	4272
31	333
31	2815
31	2894
32	689
32	2444
32	2765
32	2772
32	3376
32	3917
32	4441
33	3712
33	4538
33	4645
34	3456
34	3674
34	3755
34	3857
34	4114
34	4356
35	634
35	886
35	1607
35	4058
36	984
37	592
37	2077
37	3901
37	4291
38	2413
38	3122
38	4168
39	310
39	1218
39	1554
39	2219
40	2567
40	3622
41	2612
41	3146
41	3228
41	4374
41	4441
42	752
42	1290
42	2211
42	4559
43	170
43	396
43	1081
43	2426
43	4394
44	1486
44	2809
45	1225
45	2016
45	3469
45	3756
46	2420
47	532
47	727
47	1500
47	2642
47	3171
47	3366
47	3482
48	86
48	469
48	475
48	1383
48	4295
48	4443
49	2082
49	2928
49	3237
49	3755
50	92
50	117
50	2114
50	4762
50	4871
51	164
51	314
51	1243
51	3445
52	488
52	886
52	1762
52	2289
52	2338
52	3497
52	4177
53	284
53	1105
53	2384
53	2939
53	2963
53	3256
53	3791
53	3889
54	1498
54	2155
54	3478
55	181
55	971
55	2757
56	2061
56	2468
56	2967
56	3284
56	3524
56	3957
57	2109
57	3079
57	4011
58	2294
58	2896
58	3049
58	4515
58	4579
59	1556
59	2281
59	2669
59	2778
60	815
60	1320
60	2368
60	3572
60	4187
60	4590
61	1070
61	2670
62	2240
63	81
63	355
63	1907
63	2901
63	2947
63	4280
63	4493
64	1653
64	2292
65	667
65	989
65	2338
66	1872
66	3241
67	71
67	149
67	1345
67	1785
67	1915
67	2386
67	2751
67	4806
68	573
68	1729
68	1843
68	1848
68	1960
68	2621
68	4501
69	298
69	2889
69	4524
70	1691
70	1922
70	3991
71	4501
72	1937
72	1997
72	2584
72	2856
72	3688
73	919
73	2060
73	2827
73	4775
74	1006
74	2332
74	2887
75	371
75	374
75	1039
76	2046
76	2499
76	3657
76	3719
76	4187
77	307
77	810
77	2264
77	2374
77	2614
77	3901
77	4805
77	4824
78	576
78	2346
78	4353
79	1717
79	1935
79	1970
79	2163
79	2935
79	3076
79	3193
79	3495
79	3681
79	4815
80	388
80	2921
81	433
81	2650
81	3682
81	4462
82	246
82	453
82	1700
82	2943
83	2977
83	3096
83	3205
83	4110
84	235
84	1084
84	2575
85	2542
85	3258
85	4813
86	585
86	4124
87	798
87	2411
87	4442
88	1909
89	135
89	1137
89	1879
89	2622
89	3167
89	4069
90	616
90	936
90	1907
91	119
91	4555
92	247
92	1519
92	2831
92	3803
92	4115
93	96
93	4081
94	1273
94	3088
94	3823
94	4715
95	310
95	575
95	691
95	699
95	2160
95	3461
95	4471
96	926
96	1655
96	3052
96	3099
96	4600
97	654
97	714
97	2921
97	4282
97	4432
98	833
98	1863
98	2201
98	3069
99	355
99	1679
99	2090
99	3174
100	361
100	3380
100	4595
101	129
101	1015
101	4844
102	472
102	2917
102	3418
102	4798
103	520
103	2016
103	2223
103	2357
103	2499
103	2952
103	3368
103	3639
103	4029
103	4488
104	1220
105	930
105	2500
105	2694
105	3196
105	4137
106	893
106	1033
106	3570
107	254
108	123
108	539
108	672
108	3299
109	2668
109	3959
109	4659
110	1736
110	4543
111	483
111	753
111	2819
111	3680
111	3756
112	304
112	1412
113	4231
113	4291
113	4650
113	4787
114	1593
114	1877
114	2164
114	2505
114	4496
115	924
115	1675
115	2342
115	2637
115	4452
115	4791
116	419
116	2386
116	3988
117	821
117	1051
118	880
118	1188
118	1879
118	2669
119	1215
119	3771
119	4646
120	3559
121	2082
121	2857
121	2874
121	3564
122	140
122	526
122	1218
122	2232
122	4527
123	1474
123	1679
123	2141
123	2573
123	3895
124	431
125	4545
126	639
126	3994
126	4526
126	4692
126	4702
127	362
127	2599
127	2755
127	3201
128	2142
128	2892
128	4287
129	3725
129	4352
129	4670
130	973
130	4163
131	2301
131	3184
132	2921
132	4262
133	1374
133	1786
133	2871
133	4249
134	2202
134	3198
134	4057
134	4273
135	1324
135	2818
135	4573
136	1021
136	3300
136	4814
137	1322
137	1365
137	2409
137	2457
137	3735
138	949
138	2675
138	3116
138	3218
138	4215
138	4384
138	4714
139	550
139	2497
139	3547
139	3607
139	4609
141	241
141	1248
141	2231
141	2340
141	4065
141	4156
141	4837
142	2441
142	2486
142	4398
143	441
143	2083
143	3490
143	3731
143	4402
144	2369
144	3423
145	997
145	1030
145	1450
145	1845
145	3004
145	3370
145	3810
145	4728
146	791
146	1655
146	1672
146	3092
146	4845
147	1466
147	1746
147	3100
147	4437
147	4751
148	166
148	1349
148	1503
148	3491
148	3521
149	3219
149	3598
149	4305
150	1905
150	2228
150	2361
150	2766
150	3755
150	4059
151	1314
151	2684
151	3683
151	4166
152	189
152	1196
152	1256
152	1639
152	3735
153	1138
153	2506
153	3301
153	4265
154	4652
155	985
155	1185
155	1328
155	1734
155	2076
155	3238
155	3251
155	3359
155	4737
156	1093
156	1482
156	4264
157	345
157	1245
157	2876
157	3439
158	721
158	3022
158	3969
159	3498
160	390
160	1341
160	3100
160	3858
160	4583
161	2311
161	2787
161	3197
162	2485
162	4141
163	3292
163	3767
163	4378
164	1303
164	1526
164	3176
164	3180
164	4591
164	4874
165	196
165	915
165	1128
165	2197
165	3253
165	4216
166	2013
166	2436
166	3847
167	493
167	1825
167	2542
168	3406
169	1326
169	1847
169	3146
170	286
170	752
170	1877
170	1948
170	4206
170	4761
171	535
171	1462
171	2907
171	4387
172	641
172	1545
172	2812
172	2831
173	2894
173	4175
174	938
175	1479
175	2222
175	4083
175	4167
176	225
176	945
176	1218
176	4042
176	4316
177	1988
177	3351
177	4436
178	2568
178	2896
178	2973
178	3208
179	385
179	1087
179	3773
180	3598
181	2624
181	2658
181	3133
181	3306
181	3481
181	3702
181	3997
182	414
182	1255
182	3502
183	1337
183	3920
184	1238
184	1505
184	3907
184	4811
185	1509
185	3317
186	520
186	1456
186	2830
186	3524
187	4366
188	2037
188	3041
188	3460
189	608
189	2450
189	3554
190	231
190	1387
190	1642
190	4202
191	653
191	936
191	2606
191	2903
191	4827
192	351
192	833
192	876
192	1293
192	2023
192	3120
192	3403
192	4097
193	950
193	3111
194	1012
194	1848
194	2716
195	275
195	568
195	617
195	2550
195	3059
195	3423
195	4570
195	4615
196	846
196	3085
196	3603
197	223
197	1533
197	2999
197	3738
198	1531
198	3224
198	3245
199	1468
199	3937
199	3981
199	4208
199	4752
200	261
200	427
200	1276
200	2296
200	2874
200	4091
200	4353
201	499
201	850
201	1089
201	3071
201	3255
201	3496
201	3502
202	507
202	754
202	2066
202	3232
202	4252
203	749
203	2269
204	2230
204	2501
204	2998
204	3321
204	3763
204	3873
204	4072
205	1574
205	2473
205	2745
206	1745
206	3248
206	3729
206	4116
206	4455
206	4661
207	240
207	295
207	2657
207	3049
207	3343
207	3358
207	4472
208	865
208	1666
208	2259
208	2588
208	4324
208	4681
209	990
209	1147
209	1939
210	1647
210	3408
210	4061
210	4178
210	4199
211	3622
212	706
212	1368
212	3160
212	3444
212	4384
212	4528
212	4773
213	3588
213	4197
213	4837
214	541
214	1551
215	2795
215	3382
215	3701
215	4249
216	1499
216	2872
216	3476
216	3794
217	944
217	2212
217	3938
218	271
218	2618
218	3286
219	1510
219	2295
219	2565
219	3101
220	703
220	1560
220	1733
220	2795
220	3219
220	4276
221	819
221	1742
221	1778
221	4639
222	2200
222	2314
222	3113
222	3783
223	2236
223	2426
223	4653
224	1019
225	780
225	2145
225	2224
225	2599
225	2693
225	3702
225	3903
225	4197
225	4619
225	4865
226	1803
226	2822
226	3840
226	4282
226	4295
227	651
228	298
228	883
228	2107
228	3453
228	3572
228	3942
228	4244
228	4493
229	1796
230	349
230	2860
231	1889
231	1936
231	3707
231	3776
231	4875
232	1495
232	1520
232	2862
232	3142
233	854
233	873
233	1897
233	2189
233	2568
233	4535
233	4768
234	491
234	569
234	1307
234	4102
235	2591
235	2787
235	3504
235	4309
235	4688
236	574
236	1924
237	1363
237	3604
238	2666
238	4694
239	2466
239	3442
239	4433
240	695
240	3943
240	4292
240	4366
241	461
241	4545
241	4627
242	2200
242	2487
242	3263
242	3713
242	3968
243	1269
243	2853
243	4143
243	4534
244	284
244	1680
244	2608
244	3149
244	3259
244	4518
244	4857
245	925
245	1382
245	2623
246	1931
246	2425
246	3868
246	4548
247	954
247	1999
247	2642
248	1571
248	2483
248	4459
249	2021
249	2257
249	3494
250	1029
250	1785
250	3326
250	4488
250	4657
251	763
251	3872
252	4794
253	3056
253	4509
254	761
254	2153
254	2254
254	2442
254	2904
255	746
255	1211
255	2855
256	3486
256	4345
256	4601
257	1073
257	1313
257	3477
258	768
258	1675
258	4053
259	2683
259	4752
260	1541
260	2492
260	2563
260	3822
262	520
262	1570
263	1046
263	3047
263	3614
263	4613
264	319
264	519
264	1076
264	3842
265	2552
265	3470
265	4597
266	2849
267	270
267	994
267	1377
267	2055
267	2748
267	3946
268	1031
268	1525
268	3640
268	4176
269	1797
269	3182
269	3542
270	2963
270	4803
271	749
271	1624
271	3337
271	3583
271	3721
272	1564
272	2454
273	919
273	2561
273	4854
274	4037
274	4828
275	1422
275	2827
275	3349
275	4822
276	1761
276	3994
276	4569
277	3712
277	4320
277	4798
278	815
278	1860
278	2143
279	2042
279	3313
280	1685
280	1704
280	4263
281	499
281	3732
282	705
282	866
282	4020
283	2413
283	3486
283	4463
284	938
285	765
285	2891
285	3288
285	3737
285	4134
286	651
286	1328
286	2108
286	2951
286	4589
287	1806
287	2628
287	4552
288	875
288	2278
288	3723
288	3927
288	4477
289	1781
289	1936
289	2149
290	4445
291	717
291	750
291	1303
291	2957
291	3834
291	3900
292	3279
292	4532
292	4680
293	1292
293	1659
293	2280
293	2356
293	4467
294	1046
294	1665
294	2178
294	3755
294	4451
294	4811
295	1852
295	2945
295	3152
295	3241
295	3824
296	491
296	815
296	2792
297	609
297	3886
297	4061
297	4241
297	4679
297	4767
298	1426
299	3292
300	486
300	1801
300	2161
300	3623
301	3071
301	3926
302	442
302	2598
302	4708
303	841
303	2559
303	2680
303	3377
304	463
304	1972
304	4406
304	4632
304	4722
305	705
305	1928
305	2155
305	2694
306	616
306	916
306	1819
306	2635
306	4062
307	577
307	2170
307	3438
307	4407
308	2893
308	2902
308	3149
308	3687
309	544
309	949
309	1902
309	2066
309	3001
309	4487
309	4759
309	4866
310	1644
310	1927
310	2293
310	2806
311	1038
312	699
312	1761
312	2685
312	2816
312	3225
312	3406
312	4528
313	2861
313	2984
313	4340
314	334
314	1002
314	4516
314	4602
315	1970
315	3895
316	2024
316	3089
316	3852
316	4079
316	4861
317	912
317	1319
317	2883
317	3277
318	334
318	1874
318	2595
318	2673
319	1088
319	1487
319	1656
319	2580
319	3046
319	3059
319	4523
320	4289
320	4452
320	4657
321	2017
321	2635
321	3263
321	4047
321	4051
321	4372
321	4626
322	1307
322	1615
322	2432
322	3675
323	607
323	1541
323	1679
323	1811
323	2632
323	3059
323	4129
323	4494
324	1489
324	3478
324	4507
324	4566
325	1593
325	2765
326	457
326	1422
326	3625
327	1587
327	3126
327	4227
328	553
328	1256
328	1651
328	4323
329	2446
329	3100
329	4003
330	2163
330	3066
331	2617
331	3454
332	1814
332	2813
332	4263
333	2172
333	2352
333	2485
333	3003
334	1042
334	3485
334	4160
334	4301
334	4357
335	667
336	1449
336	2465
336	3222
336	3840
337	1441
337	2353
338	882
338	2055
338	3596
338	4011
338	4615
339	4172
339	4195
339	4218
340	1018
340	1039
340	3218
340	4259
340	4476
341	552
341	1279
341	2580
341	4767
342	1089
342	1251
342	3427
342	4343
343	571
343	2117
343	2721
343	4177
344	1833
344	2126
344	2980
344	3345
345	1645
345	2826
345	4126
345	4818
346	2295
346	2343
347	448
347	508
347	758
347	1362
347	1389
347	2451
347	2640
348	3514
348	4251
349	1607
349	2344
349	2708
349	3326
349	4096
350	420
350	1333
350	3367
351	555
351	812
351	2010
351	2734
351	3805
352	566
352	1316
352	1855
352	1945
352	2271
352	2669
352	4397
353	1236
353	1341
353	4429
354	691
354	2625
354	4399
354	4753
354	4821
355	862
356	2252
356	4189
357	369
357	990
357	4736
358	3219
358	3259
358	3682
359	1559
359	4473
360	968
360	2933
361	784
361	2754
361	3863
362	424
362	796
362	4180
363	4083
364	637
364	1616
364	1749
364	2606
364	2714
364	3825
364	3895
364	4324
365	760
365	1049
365	2118
365	3448
365	3481
366	2513
366	2517
366	3209
366	3907
366	4095
366	4478
367	815
367	875
367	1473
368	2336
369	2902
369	3380
369	3639
369	4370
369	4836
370	2034
370	4869
371	2632
371	3398
371	4196
372	383
372	703
372	1518
372	2704
373	1136
374	1810
374	3664
374	3901
375	1144
375	3344
375	4345
376	1867
376	3761
377	2401
377	2672
377	4219
378	2160
378	4207
379	552
379	1155
379	2131
379	2218
379	2291
380	714
380	1501
380	2867
380	3999
381	958
381	1329
381	1462
381	2437
381	2575
382	2491
382	2994
383	624
383	1722
383	2172
384	2136
384	2700
385	1115
385	2938
385	3329
386	2131
386	2650
386	3139
387	1031
387	2372
387	2939
388	416
388	4269
389	893
389	1333
389	3439
389	3710
389	4499
390	945
390	2126
391	2118
391	3647
392	1418
392	2473
392	3148
392	3513
392	4458
393	845
393	1760
393	3996
393	4514
394	1149
394	1336
394	1797
394	2058
395	1277
395	2067
395	3332
395	3404
396	1113
396	1795
396	2116
396	3694
396	4029
396	4089
397	1420
397	2725
398	597
398	746
398	3728
399	1240
399	2928
399	4242
399	4671
400	698
400	1027
400	2314
400	4671
401	1087
401	1927
401	4307
401	4618
402	2204
402	4118
403	2950
403	4063
404	489
404	1638
405	1789
405	1906
405	2335
405	2562
405	3475
406	1831
406	2655
406	2902
406	3850
407	3738
407	4519
407	4838
408	668
408	2180
408	3490
409	3114
409	3406
409	3744
409	3787
409	4048
410	659
410	1486
410	2800
411	1009
411	1352
411	3464
411	3799
412	564
412	2435
412	3329
412	3745
412	4048
413	3183
414	717
414	2865
415	2472
415	4300
415	4572
416	1043
416	1343
416	1815
416	4642
417	1464
417	4056
417	4855
418	780
418	2386
418	2589
418	4691
418	4751
419	575
419	1999
419	3317
419	3353
420	1030
420	2142
420	3705
420	4557
421	577
421	3612
422	497
422	1216
422	2431
422	4749
423	1004
423	1454
423	1890
423	2385
423	2835
423	3163
424	2415
424	3031
425	944
425	3728
426	610
426	4524
427	3744
428	1789
428	2668
428	2891
429	1102
429	1964
430	2858
430	3319
430	4153
431	501
431	1006
431	3014
431	3155
431	4857
432	588
432	605
433	654
433	812
433	871
433	1446
433	2221
433	2237
433	3292
433	4778
434	2577
434	4642
435	857
435	2405
435	3630
435	4025
436	1263
436	1315
436	2089
436	2578
436	3762
437	771
437	1862
437	4105
438	1022
438	1048
438	3405
438	4000
439	545
439	3789
440	1626
440	2439
440	2659
441	1703
441	2047
441	2378
441	2768
441	2825
441	3376
441	4441
442	658
442	1088
442	2367
442	3175
443	1585
443	1662
443	3598
444	2825
444	2999
444	4625
445	1198
445	2287
445	2660
445	2806
445	3221
445	3995
445	4002
446	1570
446	3901
446	4271
447	791
447	999
448	1048
448	1516
448	1625
448	4189
449	2064
449	2127
450	1112
450	2492
450	3089
451	2559
452	2266
452	3820
453	4771
454	462
454	3774
455	1288
455	1399
455	2002
455	2244
455	3369
456	601
456	708
456	2342
456	2679
456	4352
456	4592
457	724
457	1795
458	1225
458	2091
458	3431
459	1235
459	1685
459	2836
459	3833
460	556
460	1783
460	3619
460	4202
460	4376
461	1653
461	2354
461	4104
462	1707
462	2715
462	3027
462	3904
462	4377
463	1434
463	1591
463	4705
464	1966
464	2194
464	3289
464	4424
464	4473
465	2029
465	2271
465	2647
465	3147
466	1706
466	3200
466	4242
467	1048
467	1626
467	2574
467	3435
468	1616
468	3508
468	4593
468	4651
469	1114
469	1140
469	3123
469	3561
470	1311
470	2102
470	2263
470	4076
471	639
471	3076
471	3373
471	4288
472	1179
472	1507
472	2340
472	2600
473	1996
474	1003
474	1593
474	4393
474	4500
474	4639
474	4875
475	908
475	1485
475	2056
475	2826
476	1853
476	4003
477	605
477	1847
477	3224
478	1570
478	2203
478	2427
478	2438
478	2470
478	3421
478	3469
479	2651
479	4854
480	952
480	2168
480	2179
480	3935
481	1068
481	3030
482	2171
482	3675
483	1005
483	1818
483	4432
483	4800
483	4808
483	4843
484	3942
484	4517
485	660
485	4083
486	845
486	1676
486	1753
487	535
488	1555
488	2612
488	3023
488	4473
488	4730
489	1808
489	3139
489	4741
490	1174
490	2338
490	2831
490	3324
490	3417
491	1203
491	1570
491	1801
491	2761
491	4368
492	2074
492	2443
493	2663
493	2983
493	3093
493	3457
493	3852
494	1854
494	2158
495	648
495	722
495	1820
495	4491
496	4151
497	2114
497	3449
497	4512
498	1563
498	2973
498	3101
499	688
499	922
499	1585
499	4244
499	4761
500	702
500	3060
500	3962
501	1878
501	2861
501	3901
501	4567
502	1522
502	1962
502	2043
502	2385
502	2686
503	1400
503	2054
503	3039
503	4642
504	1349
504	1959
504	2207
504	2801
504	4390
505	2370
506	2513
506	2958
506	3559
506	3880
506	3984
506	4636
507	2100
507	3546
507	4100
507	4503
507	4597
507	4712
508	1677
508	2005
508	3353
508	3716
508	4733
509	837
510	527
510	2542
510	2584
510	3105
510	4302
510	4823
511	1662
511	3467
511	3787
512	2844
513	4202
513	4411
514	1048
515	1666
516	1148
516	1697
516	2310
516	2383
516	2578
516	4330
517	3507
517	4857
518	1048
518	3596
519	2788
519	4109
520	1607
520	3002
520	4413
521	1004
521	2856
521	3741
521	4691
521	4807
522	1516
522	2097
522	3514
523	627
523	1824
523	3160
523	3819
523	4739
523	4765
524	529
524	694
524	943
524	1283
525	2772
526	754
526	1427
526	2007
526	3410
526	4805
527	1474
527	3161
527	3192
528	567
528	1010
528	1034
529	1226
529	4732
530	2300
530	2711
530	3202
530	4613
531	1071
531	4164
531	4324
532	752
532	1684
532	4597
533	1068
533	1767
533	2123
533	2822
533	3083
534	923
534	1298
534	1993
534	2143
534	2614
534	3408
534	4413
534	4559
535	1272
536	1118
536	2535
536	2746
536	3738
536	4354
537	782
537	1029
537	1817
537	4547
538	904
538	2302
538	3312
538	3458
538	3627
539	1181
539	1243
539	2658
539	3165
539	3640
540	704
540	726
540	3023
540	3655
541	652
541	1216
541	2382
541	4427
542	2869
542	3573
542	4682
543	605
543	1040
543	3596
543	4559
543	4671
544	3788
544	4298
545	802
545	2325
545	2612
546	779
546	2273
546	2884
547	3589
547	3969
548	2495
548	3984
549	859
549	1014
549	3631
549	4718
550	904
550	1441
550	2746
550	4069
551	1760
551	2507
551	2676
551	4234
551	4463
552	818
552	1258
552	2178
552	2783
552	3004
552	4122
553	2026
553	2209
553	3346
553	4244
553	4827
554	563
554	3870
554	4390
554	4564
555	982
555	1491
555	1966
555	2345
555	2850
555	4521
557	2490
557	3228
557	4433
558	582
558	1003
558	1593
558	2077
558	2579
558	3955
558	4003
559	2471
559	3260
559	4744
560	928
560	2311
560	2958
560	4655
561	1226
561	4335
562	1749
562	3285
562	3680
562	4707
563	954
563	1924
563	2810
563	3785
564	1494
564	4486
565	861
565	3162
565	4692
566	1114
566	1623
566	1697
567	4014
569	783
569	1243
569	2622
569	3321
569	3821
570	1901
570	3337
570	3553
571	754
571	1075
571	4096
571	4843
572	945
573	770
574	3350
574	3941
574	4827
575	1996
575	3098
575	3437
575	4244
576	1381
576	1753
576	2079
576	2311
576	3457
576	3507
577	731
577	2227
577	4071
577	4489
578	1435
578	1958
578	4777
579	938
579	1612
579	2350
579	2508
579	2655
579	2824
580	908
580	2576
580	3002
580	3077
580	3309
581	1901
581	2734
581	3093
581	3413
581	4406
582	909
582	2348
582	2354
582	3272
583	2550
583	2967
584	997
584	1990
584	2487
585	1405
585	3134
585	3311
586	597
586	4486
587	2110
587	2277
587	3450
587	3834
587	3851
588	983
588	2039
588	2327
588	2886
588	2978
589	953
589	1009
589	1580
589	4214
589	4230
589	4832
590	1508
590	4220
591	1868
591	4181
591	4671
592	927
592	1912
592	2460
592	3092
592	3130
593	2105
593	2494
593	4430
594	610
594	1064
594	1741
594	2415
595	888
595	2150
595	2667
596	2104
596	2431
596	2451
596	4852
597	1287
597	2686
597	3135
597	4435
598	796
598	959
598	1320
598	2606
598	2700
599	744
599	2548
599	4574
600	766
600	925
600	1777
600	2650
600	3010
601	1805
601	2214
601	3793
602	1080
602	2727
602	3118
602	4304
603	1308
603	1641
603	1824
603	2169
603	3265
603	3436
603	3891
603	4784
604	1443
604	1847
604	3474
605	1051
605	1119
605	1614
605	4628
605	4754
606	915
606	1261
606	2107
606	2835
606	4483
606	4691
607	1541
607	4503
608	1506
608	4330
609	1150
609	1328
609	2521
609	3651
609	4570
609	4742
610	666
610	1847
611	1687
611	3664
611	3929
612	1016
612	1368
612	1819
612	2894
613	1075
613	1351
613	1595
613	3749
614	863
614	1017
614	1735
614	4005
614	4053
614	4854
615	1281
615	1653
615	1682
615	1809
615	1837
615	2431
615	2888
615	3728
615	3858
616	1151
616	1316
616	1961
616	3576
617	4193
618	1890
618	3077
618	3381
619	1638
619	3685
619	3911
619	4195
620	1469
620	2482
620	3482
620	3619
620	3727
620	3976
621	824
621	1533
621	2310
621	2449
621	3512
621	3677
621	4138
622	1370
622	1975
622	3540
622	3775
623	2829
623	3289
623	3303
623	4072
624	1321
624	1536
624	3139
624	3962
625	1928
625	3941
626	2077
626	2543
626	2759
626	2844
626	3915
627	1017
627	2035
627	2176
627	3798
628	2934
629	1601
629	2751
629	4776
630	2858
630	3424
630	4186
631	2604
632	892
632	1286
632	4592
632	4770
633	2326
633	2589
633	2660
633	2778
633	3490
633	3723
634	666
634	740
634	1208
634	1794
634	2578
634	4621
635	801
635	3503
636	656
636	1589
636	2941
636	4607
637	2427
637	3134
637	3964
637	4267
638	3116
638	3488
638	4312
639	1242
639	1304
639	2183
639	3098
639	3929
639	4751
639	4810
640	799
640	2966
640	4691
641	705
641	832
641	935
641	1828
641	2777
641	3607
641	4306
642	1119
642	2013
642	2147
642	2310
642	3349
642	3881
642	4873
643	1564
643	3340
644	1142
644	2398
644	2778
644	4839
645	4141
645	4342
645	4751
646	3444
646	3559
646	4574
647	1091
647	2098
647	2273
648	1251
648	2156
648	2689
648	3715
649	2629
649	4851
650	1138
650	2863
650	4725
651	1057
651	3893
651	4144
651	4432
652	847
652	2098
652	2263
652	3326
652	4030
653	3972
653	4205
653	4463
653	4725
654	1289
654	3283
654	4002
655	1130
655	1404
655	2177
655	4076
656	1846
656	2543
656	3965
657	2418
657	4101
658	2123
658	3070
659	2781
659	3467
659	4323
659	4635
660	676
660	1155
660	2159
660	2439
660	3035
660	3217
661	1951
662	1841
662	2750
662	3371
662	3772
662	3939
662	4582
663	4461
664	1600
664	2233
664	3056
665	1490
665	2201
665	2298
665	3204
665	3436
666	3560
666	3836
666	4744
667	2623
667	4093
668	673
668	2753
668	3421
668	4138
668	4680
669	2468
669	2598
669	3854
670	1086
670	1107
670	1764
670	2018
670	2090
670	3335
670	3807
670	3825
670	3912
670	4568
670	4837
671	1141
671	2905
671	3202
671	3827
671	4475
672	1143
672	2773
673	791
673	3289
673	3439
674	1421
674	3203
674	4048
675	1181
675	1708
676	2321
677	1412
677	3048
677	3223
677	3682
677	4399
678	703
678	1312
678	1692
678	3743
679	959
679	2249
680	1911
680	2031
680	4573
681	982
681	3657
682	1140
682	1238
682	4446
682	4872
683	4008
684	1033
684	1937
684	2089
685	1337
685	1433
685	2200
686	774
686	1006
686	2007
686	2488
686	4151
686	4808
687	852
687	3912
687	4158
687	4346
687	4376
688	1746
688	4229
688	4370
689	2297
689	4485
690	2587
690	2876
691	2382
691	3499
692	1692
692	1710
692	4839
693	2131
694	2703
694	4381
695	2972
695	4871
696	2021
696	3994
696	4367
697	854
697	1138
697	1193
697	2501
697	3803
697	4792
698	3534
698	3685
698	3770
699	1709
699	4793
700	1211
700	3385
700	3572
700	3832
701	891
701	1269
701	2393
701	2654
701	3616
701	3790
702	1316
702	2171
702	3035
702	3133
702	3244
703	2361
704	1962
704	2582
704	3168
705	2765
705	4075
707	2333
707	4495
708	1059
708	2085
708	2574
709	2826
709	4258
709	4298
710	1709
710	4334
711	741
711	757
711	2842
712	912
712	3545
713	1007
713	1756
713	3028
713	3362
713	3662
714	1662
714	2301
714	4139
715	1714
716	2205
716	2707
716	4203
717	1600
717	2025
717	2528
718	1507
718	4181
719	1421
719	2427
719	3079
719	4191
720	3218
721	1593
721	2115
721	4237
722	2617
722	3294
722	3870
723	996
723	1465
723	1712
723	2516
723	3024
723	3418
723	3585
724	1049
724	4560
724	4714
725	984
725	1122
725	1203
725	4700
725	4787
726	1711
726	4020
726	4080
727	926
727	1067
727	1235
727	1757
727	3205
727	4835
728	748
728	878
728	1718
728	2532
728	3889
729	769
729	1099
729	2934
729	3480
729	3667
729	4850
730	1820
730	1947
730	2048
730	2268
730	4009
730	4129
730	4187
731	759
731	1976
731	2271
731	3028
731	3464
731	3909
732	2309
732	3988
732	4239
732	4458
732	4751
733	803
733	3517
733	3734
733	4715
734	4234
734	4762
735	1662
735	2007
735	4199
735	4545
736	1767
736	2740
737	799
737	911
737	956
737	987
737	1829
737	1870
737	2786
737	3094
737	3724
737	4335
738	2553
738	2974
738	3217
738	3581
738	3595
738	4407
738	4528
739	3444
740	1743
740	3516
740	3681
740	3734
741	1395
741	2633
741	3271
741	4334
742	1996
742	2300
742	3826
742	4190
743	1200
743	1651
743	1662
743	3156
743	3573
743	4462
744	1416
744	1886
744	1942
744	3710
744	4130
745	1712
745	1956
745	2820
745	4172
746	2719
746	3000
747	2976
747	4372
748	912
748	2795
748	4251
748	4253
749	768
749	1302
749	1966
749	2513
749	3483
749	3914
749	4063
749	4376
749	4687
750	1104
750	1182
750	1682
750	2179
750	2476
750	2686
750	4541
751	1405
751	1660
751	2290
751	3409
751	4336
752	1047
752	1797
752	2972
752	4546
753	907
753	4272
753	4631
754	1049
754	1336
754	1911
755	1405
755	3563
755	3830
755	4718
756	2334
757	1690
758	1374
758	1483
758	1498
758	2456
758	2807
758	4340
759	1140
759	2785
759	2837
759	3330
759	3801
760	906
760	1485
760	2139
760	2235
760	4629
762	1928
762	3916
762	4257
762	4736
762	4853
763	940
763	2489
763	3657
763	3935
763	4622
764	1015
764	1854
764	3754
764	4345
765	890
765	1212
765	1373
765	1910
765	2847
765	3046
765	4820
766	2208
766	2264
766	4215
767	1183
767	2430
767	4155
768	2151
768	3532
768	3954
769	1276
769	1363
769	2210
769	3100
769	3975
770	858
771	3641
772	1273
772	4153
772	4581
772	4589
773	959
773	1093
774	1154
774	1204
774	4508
775	1080
775	1250
775	2743
775	3048
775	3950
775	4829
776	1701
776	2305
776	3223
777	1029
777	1747
777	2301
777	3436
777	3537
777	4288
777	4570
778	2164
778	2702
778	2761
778	2829
778	3967
778	4157
779	3050
779	3383
779	4492
780	2526
780	4150
780	4287
780	4502
780	4644
781	2949
781	3102
781	4692
782	811
782	1379
782	1384
782	1822
782	4647
783	1966
783	4226
784	1091
784	3415
784	3500
784	3525
785	3312
785	3873
786	813
786	1194
786	1831
786	2855
786	4210
786	4346
786	4505
786	4695
787	2581
787	3396
787	3605
788	1117
788	1849
788	3802
788	4629
789	2190
789	2759
789	3336
790	898
790	3285
791	814
791	2163
791	2273
791	2811
791	3836
792	1550
792	4162
792	4713
793	1463
793	2509
793	4783
794	1261
794	1606
794	4382
795	930
795	1824
795	2438
795	4410
796	1308
796	2268
796	3543
796	3936
796	4407
797	2137
797	2271
797	3650
798	3976
798	4326
799	4324
800	1452
800	2827
800	2862
800	3736
800	4189
801	3248
801	3796
801	3920
802	1781
802	2059
802	3088
802	3963
802	3997
803	1763
803	1842
803	1851
803	3859
803	3975
804	3326
805	2134
805	2153
805	2609
805	4231
806	1480
806	2126
806	3367
806	3500
807	2704
807	3307
807	3469
807	4330
808	3050
808	3525
808	4624
809	3175
809	3491
810	1939
810	1942
810	3240
810	4123
811	1729
811	2515
811	2617
811	2730
811	3726
811	4512
812	1235
812	1260
813	2259
813	2406
814	2771
814	3654
814	3674
814	3857
815	1691
815	2220
815	3374
815	3916
815	4850
816	1639
816	2350
816	3829
816	4157
816	4527
816	4655
817	997
817	1008
817	1142
817	4609
818	2594
818	3188
818	3211
818	4207
818	4409
818	4735
819	3505
819	3819
820	1378
820	1925
820	3237
820	3502
821	1065
821	2010
821	2583
821	3007
821	4541
822	2040
822	2471
822	4688
823	3631
823	3679
823	4019
824	1268
824	4449
825	3354
825	3924
826	1598
827	4367
827	4443
827	4753
828	1216
828	1606
828	2416
829	1025
829	3334
830	3789
831	4351
832	1718
832	2790
832	3271
832	3293
832	4368
833	1890
834	1056
834	1281
834	1929
834	2271
834	2623
834	4326
834	4545
834	4601
835	1321
835	1547
835	2064
835	3675
836	2012
836	2243
836	2739
836	3395
837	1010
837	1559
837	2264
837	2895
838	1870
838	2493
838	2573
838	3106
839	2022
839	2487
839	2688
839	2975
839	3188
839	4443
840	3503
841	1159
841	1298
841	1597
841	3408
841	3857
842	2610
843	1298
843	1783
843	1840
843	3490
844	2491
844	2993
844	3010
844	3482
844	3562
844	4024
844	4751
845	867
845	1381
845	4355
845	4671
846	900
846	2513
846	2935
846	3981
846	4195
847	906
847	1563
847	1591
847	3659
848	2264
848	3646
848	4426
848	4788
849	949
849	1323
849	1634
849	3690
850	3051
850	3730
851	2741
851	3653
851	3692
852	877
852	1648
852	2834
852	4386
852	4764
853	2435
853	4488
854	1301
854	2514
854	2581
854	3703
855	1730
855	3811
855	4687
856	1043
856	1158
856	1264
856	1375
856	1848
857	4861
858	1704
858	4608
860	1367
860	1483
860	3568
860	4709
861	1737
862	1228
862	1235
862	1404
862	3583
862	3980
862	4194
863	2646
863	2655
863	3287
864	911
864	1836
864	3192
864	3582
865	1039
865	3085
865	4084
866	1066
866	3414
866	3888
867	1099
867	1161
867	2121
867	2620
867	2896
867	3353
867	3850
867	3866
867	4801
868	2419
868	3794
869	3676
869	3931
870	1678
870	1715
870	4266
871	1112
871	2539
872	1610
872	2013
872	2244
872	2463
872	2983
872	4313
873	2430
873	4036
873	4572
874	1500
874	1583
874	2422
875	914
875	1270
875	1672
876	1891
876	3845
876	4281
877	4073
878	1995
878	3085
879	992
879	1043
879	1430
879	2487
879	3211
880	1115
880	1218
880	2107
880	2439
881	2185
881	2280
881	3235
882	2300
882	3823
882	4064
882	4746
882	4817
883	1095
883	3770
883	3793
884	3760
885	1541
885	1775
885	2340
886	923
886	1694
886	1931
886	3530
886	4684
887	1594
887	3721
887	4850
888	998
888	2873
889	2074
889	2328
889	3377
889	4334
890	963
890	1139
890	1253
890	1831
890	3896
891	1038
891	3788
891	4315
892	2398
892	3790
893	2276
893	2944
893	3172
893	4772
894	2675
894	3831
894	4022
894	4093
895	1235
895	3698
895	3718
895	4235
896	1881
896	2344
896	2877
897	1004
897	1628
897	2650
897	2794
897	4869
898	1188
898	2190
898	3932
898	4273
898	4352
899	1212
899	3096
900	1027
900	1287
900	1947
900	2074
900	2732
900	3919
901	2488
901	3766
902	1071
902	2936
902	3420
902	4474
903	1367
903	2245
903	4316
903	4454
904	1580
904	2258
904	3555
905	1223
905	1630
905	1888
905	2134
905	3557
905	3573
906	2725
906	3853
907	2644
907	3043
908	1631
908	2470
908	2782
908	3061
908	3700
908	4216
908	4501
909	2437
909	2904
910	1026
910	2190
911	2538
911	2982
911	4373
912	2449
912	2846
912	3541
912	3661
913	2117
913	2130
913	2755
913	2902
913	3065
913	3798
913	4246
913	4281
914	1011
914	3175
914	4834
915	1705
916	1831
916	2255
916	2775
916	2790
917	2199
917	3179
917	3312
918	1199
918	2008
918	2170
918	2838
918	3988
919	3787
920	3562
920	4274
921	1334
921	1796
921	4849
922	3745
923	1464
923	1492
923	1598
923	4667
924	2706
924	4062
925	1626
925	2551
925	2945
925	3149
925	4445
926	3229
926	3822
927	1263
927	2102
927	2988
928	2139
928	3426
928	4304
929	2498
929	3589
929	3680
930	1042
930	1506
930	2576
930	3327
931	2110
931	3851
931	3983
932	2905
932	3409
932	4588
932	4694
933	1404
933	3684
933	4149
934	1098
934	1863
934	3345
934	3664
934	3769
934	4333
935	1940
935	2713
935	2978
936	1162
936	1385
936	4007
937	2172
937	2503
937	3306
937	4564
938	3536
939	1007
939	1427
940	1842
941	4128
942	3360
943	1596
943	1877
943	2167
943	2770
943	4625
944	3077
945	1710
945	4542
946	1208
946	3060
947	1966
947	3440
947	3771
947	3897
948	1511
948	4058
948	4540
949	1154
949	1652
949	2574
950	968
950	1273
950	2309
951	1335
951	3364
953	1415
953	4299
954	1746
954	2280
954	3317
954	4092
954	4306
955	2300
955	2368
955	2985
955	4013
955	4301
956	4607
957	4389
958	3867
959	1174
959	2199
959	2860
959	4068
960	1110
960	1660
961	1571
961	3147
961	3677
961	3949
962	1500
962	4241
962	4309
962	4344
963	1912
963	2773
963	3157
963	3453
964	2856
965	1348
965	1491
965	3206
966	3567
966	3776
966	4584
967	2246
967	3838
968	975
968	2017
968	2693
968	3045
968	3342
968	3919
969	2259
969	4064
969	4632
970	1231
971	2542
971	4445
972	1197
972	1735
973	1886
973	2007
973	2558
973	3697
974	1626
974	2523
974	4054
975	3388
975	3602
976	3218
976	4624
977	1782
977	3185
977	3807
977	4775
978	1084
978	1332
978	1725
979	1149
979	3180
979	3826
980	1367
980	2415
980	4625
981	1898
981	3610
981	3858
981	3861
981	4530
982	2716
983	1918
983	3732
984	1315
984	1794
984	2522
984	3753
984	4480
985	1837
985	2533
985	4517
985	4819
986	2975
987	1783
987	2423
988	4255
989	2131
989	3915
989	4335
989	4860
990	1287
990	1587
990	1879
990	2573
990	3159
990	3678
991	3297
991	4583
992	1429
992	3487
992	3573
993	1700
993	2404
993	2554
993	3289
993	3344
993	4075
994	1477
994	2279
994	4059
995	1817
995	2284
995	2436
995	3032
995	3138
996	1052
996	1854
996	2646
996	3135
996	4809
997	1774
997	3807
997	3872
998	4426
998	4720
999	3970
999	4388
1000	2388
1001	1199
1001	1216
1001	1613
1001	2549
1001	3167
1001	3255
1002	1768
1003	1657
1004	1437
1004	3620
1005	1145
1005	2256
1005	3329
1005	3885
1005	4562
1006	4832
1007	1488
1007	3958
1007	4114
1008	1461
1008	3282
1008	4101
1009	2185
1009	3204
1009	4450
1009	4836
1010	1731
1010	3500
1010	3674
1010	3900
1011	2705
1011	2945
1012	1064
1012	2200
1012	3053
1012	3632
1012	3693
1013	1760
1013	2597
1013	3117
1014	2160
1014	2216
1014	2908
1015	2591
1015	2865
1015	4630
1015	4825
1016	1630
1016	1660
1016	1933
1016	2394
1016	3222
1017	4749
1018	1353
1018	1534
1018	2665
1018	3448
1018	4314
1019	2054
1019	3740
1020	4095
1020	4106
1020	4822
1021	2393
1021	2693
1021	4756
1022	1517
1022	2368
1022	2551
1022	2849
1022	4613
1023	1169
1023	1709
1023	3363
1023	4378
1024	3937
1025	1875
1025	4391
1025	4689
1026	1117
1026	1818
1026	3563
1026	3968
1026	4068
1027	1768
1027	1862
1028	1877
1028	3848
1028	4839
1029	2490
1030	2471
1030	4852
1031	1054
1031	2882
1031	3001
1032	2115
1032	2769
1033	1425
1033	3045
1034	1047
1034	2381
1034	2989
1034	4013
1035	1740
1036	1114
1036	1934
1037	1087
1037	2773
1037	3416
1038	3599
1038	4092
1038	4292
1038	4517
1039	3507
1040	2959
1041	1257
1042	1670
1043	1412
1043	3205
1044	1402
1044	1657
1044	2031
1044	3757
1044	3826
1045	1444
1045	4049
1046	1268
1046	1582
1046	1750
1046	1971
1046	4104
1047	1092
1047	1976
1047	2662
1048	3783
1049	1151
1049	2458
1050	1320
1050	1817
1051	2338
1051	2692
1051	2749
1051	2788
1051	3708
1051	3762
1052	2776
1052	4519
1052	4745
1053	1057
1053	3851
1053	4445
1054	2031
1055	1756
1055	2797
1055	3350
1055	3557
1056	1333
1056	1440
1056	4177
1056	4853
1057	2222
1057	2712
1057	2802
1057	3201
1057	4520
1058	1307
1058	2788
1058	4341
1058	4427
1059	1430
1059	1635
1059	2142
1059	2302
1059	3012
1059	3044
1059	4424
1060	2512
1060	4681
1061	1749
1061	2664
1062	4330
1063	1514
1063	1666
1063	2297
1063	2926
1063	4597
1064	2351
1064	3682
1065	1377
1065	2025
1065	2841
1065	3664
1065	4641
1065	4644
1066	4871
1067	1642
1068	4063
1069	2878
1069	3041
1069	3332
1069	4209
1070	1604
1070	2066
1070	2654
1070	2822
1071	1955
1071	3607
1072	4522
1072	4828
1073	2764
1073	2953
1073	4188
1074	4391
1074	4457
1075	2726
1075	3028
1076	1383
1076	1388
1076	3743
1077	3367
1077	4420
1077	4631
1077	4694
1078	2778
1078	3797
1079	3037
1080	2351
1080	2867
1080	3067
1080	4756
1081	1884
1081	3246
1081	4351
1081	4843
1082	1421
1082	2500
1082	2572
1082	3437
1083	3681
1083	4291
1084	1487
1084	3986
1084	4351
1084	4749
1085	1964
1085	2016
1085	3573
1085	4727
1086	2678
1086	4682
1087	2761
1087	2825
1087	3722
1087	3723
1087	4538
1088	3012
1089	3343
1090	1557
1090	2411
1090	2623
1090	3183
1090	3283
1090	4269
1090	4527
1090	4707
1091	3058
1091	3223
1091	4466
1091	4530
1091	4691
1092	1460
1092	2013
1092	2361
1092	3013
1093	3511
1093	4585
1093	4838
1094	2071
1095	3343
1096	1269
1096	3356
1097	3534
1097	4275
1098	1192
1098	1791
1098	2558
1098	4167
1099	2053
1099	2803
1099	3571
1100	2067
1100	2466
1100	3163
1100	4268
1100	4652
1101	1874
1101	1892
1101	2299
1101	3600
1101	4351
1102	3050
1102	4819
1103	1343
1103	1352
1103	2859
1103	3408
1103	3729
1103	3936
1103	4704
1104	2431
1104	3677
1104	4055
1104	4081
1104	4470
1104	4515
1105	1987
1105	3930
1106	3731
1107	2695
1108	1701
1108	4430
1108	4703
1109	3980
1110	2354
1110	2897
1110	3044
1110	3061
1110	3629
1111	1552
1112	2122
1112	2162
1112	2679
1112	3267
1112	4524
1113	4252
1114	1541
1114	3103
1114	3582
1115	1587
1115	2048
1115	3893
1116	2306
1116	2504
1116	3242
1117	1269
1117	2557
1117	3618
1118	4837
1119	1156
1119	4790
1120	1715
1120	2216
1120	3017
1121	2580
1121	4671
1122	2341
1122	3663
1122	3935
1122	4536
1123	2231
1123	3198
1123	3809
1123	4029
1124	2001
1124	4692
1125	1484
1125	1586
1125	3687
1125	4451
1125	4870
1126	2135
1126	3008
1126	3619
1127	3776
1128	2909
1128	2963
1129	1525
1129	2129
1129	3591
1130	1652
1131	1362
1131	2781
1131	2790
1132	2177
1132	2284
1132	3675
1132	4424
1133	2049
1133	3158
1133	3580
1133	4508
1133	4714
1134	2446
1134	2538
1134	3428
1134	3867
1134	4721
1134	4764
1135	1770
1135	2954
1135	3926
1136	1259
1136	1342
1136	1612
1136	1794
1136	2360
1136	3532
1137	1653
1137	3158
1137	4033
1137	4348
1138	1169
1138	2349
1138	3094
1139	2012
1139	2248
1139	3095
1139	3543
1139	3670
1139	4270
1139	4286
1139	4458
1140	1273
1140	1641
1140	4672
1141	1613
1141	3614
1141	4619
1142	1545
1142	3785
1142	3952
1142	4062
1142	4612
1142	4707
1143	1197
1143	2250
1143	3269
1143	4311
1143	4331
1144	2119
1144	3159
1144	3411
1144	3457
1145	4789
1146	3642
1146	3787
1147	1753
1147	2037
1147	2058
1147	2333
1147	3334
1147	4330
1148	1761
1148	3150
1149	1241
1149	2704
1149	3897
1149	4727
1150	3249
1150	3640
1150	4096
1150	4252
1150	4336
1150	4484
1151	3380
1152	1665
1152	1946
1152	2200
1152	2438
1152	2970
1152	3055
1152	3141
1152	3242
1153	1774
1153	3293
1153	4766
1154	1464
1154	1871
1155	1207
1155	2814
1156	1554
1156	2887
1156	4335
1157	2313
1157	2557
1157	4127
1157	4687
1158	2179
1158	2758
1158	3340
1158	4394
1158	4401
1159	1270
1159	2604
1159	3922
1160	1989
1160	2389
1160	3354
1160	3751
1160	4456
1160	4623
1162	1686
1162	1794
1162	2705
1162	4783
1163	1239
1163	3173
1163	3980
1163	4003
1164	1914
1164	2937
1164	3078
1164	4503
1165	2265
1165	4271
1166	1279
1166	2025
1166	2169
1166	2448
1166	2776
1166	3431
1167	1890
1167	3171
1167	3211
1167	3639
1168	1258
1168	2664
1168	3332
1168	4758
1169	2605
1170	2200
1170	2494
1170	4009
1171	1948
1171	2074
1171	4263
1172	4091
1173	1318
1173	1578
1173	3135
1174	2270
1175	1824
1175	1990
1175	3158
1175	3282
1176	1483
1176	1937
1176	2247
1176	4077
1177	1617
1177	1645
1177	3660
1177	4259
1178	2158
1178	3310
1178	3710
1179	2969
1179	3031
1179	3281
1180	3071
1181	1555
1181	1900
1181	3594
1181	4579
1182	2032
1183	2607
1183	3226
1183	3996
1183	4099
1184	2405
1184	2650
1184	3099
1184	3878
1184	4024
1185	1711
1185	1910
1186	1994
1186	2023
1186	2500
1186	3556
1187	2962
1187	3904
1187	4365
1187	4719
1188	1672
1188	4534
1189	3019
1189	3315
1190	1521
1190	2836
1190	3433
1190	3977
1190	4780
1191	1393
1191	2051
1191	4029
1192	1893
1192	2226
1193	1251
1193	4008
1194	1769
1194	2024
1194	3174
1194	3351
1194	3872
1195	2384
1195	2838
1195	4760
1196	2910
1196	4117
1197	1791
1197	2616
1197	2797
1197	3715
1197	4367
1197	4516
1198	4848
1199	1679
1199	3476
1199	4412
1200	2330
1200	3820
1200	3894
1201	1992
1202	2776
1202	3446
1202	4336
1203	2235
1203	2943
1204	2620
1204	3845
1204	4863
1205	1424
1205	4538
1205	4577
1206	1520
1206	1826
1207	1433
1207	1878
1207	2771
1207	2789
1207	3063
1207	3467
1208	1963
1208	2325
1209	2357
1210	2225
1210	2388
1210	4587
1212	1229
1212	3021
1212	4328
1212	4473
1213	1432
1213	2289
1214	1328
1215	1741
1215	2963
1215	3749
1216	4482
1217	1234
1217	1436
1217	3025
1217	3447
1218	1627
1218	2114
1218	2267
1218	2732
1218	3902
1218	4717
1219	2216
1219	2588
1219	3386
1220	2276
1221	3380
1221	3745
1221	4296
1221	4514
1222	1521
1222	4867
1223	3198
1224	2130
1224	3753
1224	4463
1225	1413
1225	1790
1225	4461
1225	4723
1226	1668
1226	4067
1227	1745
1227	4774
1228	2022
1228	4162
1228	4792
1229	2099
1229	3312
1229	4488
1229	4533
1229	4848
1230	2643
1230	4363
1230	4434
1230	4782
1231	1686
1231	2027
1231	2044
1231	2513
1231	3849
1231	4461
1231	4737
1232	1815
1232	1942
1232	2811
1232	2847
1233	1704
1233	1803
1233	2552
1233	3004
1233	3924
1233	4402
1234	1380
1234	2370
1234	3471
1235	3522
1235	4311
1236	2904
1236	4850
1237	2249
1237	2930
1237	3867
1238	4680
1239	3165
1239	4014
1239	4072
1240	3026
1241	1247
1241	1994
1242	1643
1243	3437
1243	3514
1243	4525
1244	3188
1244	4161
1245	1398
1245	1473
1245	4216
1246	3222
1246	3681
1247	1989
1247	2390
1247	3114
1248	1649
1249	1643
1249	2517
1249	2756
1250	2539
1250	2726
1250	3349
1250	4168
1251	4431
1252	3087
1253	1879
1253	2218
1253	3609
1253	3915
1254	2902
1255	4333
1256	1524
1256	2090
1256	2547
1256	2647
1256	2665
1256	4605
1257	4505
1258	1445
1258	2940
1258	3784
1259	1604
1259	3163
1259	3655
1259	4380
1259	4513
1260	1919
1260	2560
1260	3068
1261	1484
1261	1599
1261	2844
1262	1400
1262	2144
1263	3242
1263	3595
1263	4325
1263	4568
1264	1482
1265	1491
1265	3651
1265	4085
1266	1857
1266	4431
1266	4524
1267	1943
1267	2644
1267	2694
1267	3793
1267	4064
1267	4329
1268	3893
1268	4195
1268	4294
1269	3850
1270	3790
1270	4139
1271	1427
1271	2955
1271	4769
1272	2626
1272	3791
1272	4527
1273	1895
1273	2272
1273	3765
1274	1719
1274	2694
1275	2949
1275	3855
1276	2719
1276	3434
1276	4044
1278	2609
1278	4194
1279	1771
1279	2430
1279	3970
1280	1349
1280	1785
1280	3121
1280	4080
1280	4362
1281	2781
1281	3312
1282	3141
1282	4321
1283	1934
1283	2958
1283	3561
1283	4450
1284	1578
1284	1872
1284	1929
1284	3747
1284	4870
1285	3099
1286	1358
1286	2003
1286	2444
1286	2574
1286	4066
1287	3023
1287	4466
1288	3251
1288	4444
1288	4788
1289	2652
1289	2766
1289	3117
1290	1889
1290	3873
1290	4055
1291	2740
1291	4829
1292	1482
1292	3232
1292	4360
1293	3287
1293	3637
1294	1622
1294	1924
1295	1420
1295	3970
1295	4641
1295	4850
1296	1377
1296	2158
1296	2592
1296	2820
1296	3336
1297	3961
1297	4563
1298	1709
1298	3212
1298	4138
1298	4560
1299	1314
1299	1747
1299	3090
1299	3857
1300	1315
1300	2481
1301	1823
1301	3097
1301	3139
1301	4102
1301	4301
1302	2368
1302	3572
1303	1804
1303	2773
1303	2900
1303	3724
1303	3999
1304	3180
1304	4680
1305	1462
1305	3215
1305	4218
1305	4683
1306	3732
1307	2104
1307	2497
1307	3284
1308	1522
1308	2701
1308	3681
1309	3270
1310	2032
1310	2249
1310	2860
1310	3339
1310	4480
1310	4738
1311	1780
1311	2436
1311	2918
1311	3677
1311	3711
1311	4001
1312	2075
1312	3950
1312	4725
1313	2686
1313	3443
1313	3602
1314	2340
1314	3339
1314	4656
1315	2227
1315	2398
1315	3079
1315	3370
1315	4601
1316	1719
1316	4011
1316	4814
1317	3726
1318	1385
1318	2056
1318	2614
1318	3358
1318	3448
1319	2963
1319	3406
1319	4216
1320	2140
1320	2163
1320	2522
1320	3616
1320	3985
1320	4046
1320	4195
1320	4238
1321	3009
1323	3868
1323	4404
1324	3280
1325	2093
1325	2256
1325	3599
1325	4003
1325	4616
1326	3102
1326	3158
1326	3446
1326	3481
1326	4583
1327	2551
1327	3378
1327	3382
1327	3596
1327	4770
1328	3131
1328	4346
1329	2448
1330	1535
1330	1822
1331	2534
1331	3262
1331	4743
1332	1483
1332	1772
1334	1784
1334	3950
1334	4436
1334	4534
1334	4804
1335	1900
1335	2882
1335	3674
1335	4716
1336	2414
1337	4223
1337	4233
1338	4024
1338	4103
1339	2099
1339	4361
1339	4577
1340	2041
1340	2839
1340	2917
1340	4580
1341	1650
1341	2323
1341	2727
1341	3700
1341	4055
1342	2258
1342	2848
1342	3501
1343	1826
1343	3839
1344	2812
1344	3352
1345	2910
1346	3053
1346	4764
1347	3305
1348	2068
1348	2922
1348	3533
1349	1712
1349	3282
1350	2534
1350	3238
1350	4080
1351	2652
1352	1973
1352	2251
1352	3740
1352	4224
1353	1477
1353	2082
1353	2649
1353	4201
1353	4469
1354	1981
1354	4526
1354	4656
1355	1701
1355	2182
1356	2002
1356	2127
1356	2533
1357	3520
1357	3700
1357	4323
1358	1948
1358	2996
1358	4236
1359	1729
1359	2326
1359	2370
1359	4778
1360	1570
1360	1801
1360	2320
1360	2378
1360	2610
1360	4030
1360	4797
1361	1471
1362	2604
1362	3163
1363	2934
1364	2699
1364	4210
1365	1583
1365	3871
1365	4137
1365	4782
1366	2764
1366	4624
1367	1571
1367	3298
1367	4634
1368	1569
1368	3166
1369	3115
1369	3497
1369	4359
1370	2409
1371	3428
1371	3724
1371	4654
1372	3003
1372	3954
1372	4215
1372	4307
1373	1928
1373	1956
1373	2393
1374	2441
1375	2587
1375	2919
1375	3726
1375	3783
1375	4817
1376	2305
1376	2806
1376	3020
1376	4011
1377	2943
1377	3560
1378	3781
1378	4866
1379	2287
1379	2293
1380	4687
1381	2128
1381	2473
1382	1388
1382	1446
1382	4451
1383	2529
1384	1581
1384	2296
1385	2636
1385	2665
1385	2986
1385	3174
1385	3472
1386	1871
1386	3863
1386	4349
1386	4752
1387	3024
1387	3604
1388	2254
1388	2980
1388	4056
1388	4777
1389	1392
1389	1504
1389	4340
1389	4783
1390	2941
1390	2985
1390	3179
1390	3690
1391	2382
1391	2745
1391	3325
1391	3577
1391	4195
1391	4333
1391	4807
1392	1887
1392	2309
1393	1682
1393	3783
1394	2109
1395	1751
1396	1538
1396	1892
1396	2670
1397	1420
1398	1872
1398	2521
1399	4809
1400	2696
1400	3091
1400	3356
1400	4045
1400	4834
1401	3685
1401	4843
1402	3492
1403	4458
1403	4635
1404	2582
1404	4084
1404	4801
1405	3606
1406	2316
1406	2609
1406	2999
1406	3227
1406	3888
1406	4245
1406	4257
1406	4401
1407	1768
1407	3651
1407	4031
1408	2708
1408	2924
1408	3857
1409	2342
1410	4468
1410	4820
1410	4825
1411	1764
1411	3034
1411	3191
1411	3291
1411	4593
1412	2132
1412	4151
1413	2565
1413	2645
1413	3944
1413	4050
1414	2276
1414	2352
1415	2401
1415	3410
1417	2922
1417	3481
1418	1799
1418	3079
1418	3371
1418	4458
1419	1961
1419	2980
1419	4686
1419	4832
1420	1520
1421	1443
1421	2215
1421	2480
1422	2377
1423	2311
1423	3997
1423	4819
1424	2605
1424	2640
1424	2836
1424	4417
1425	2463
1425	2559
1425	4619
1426	2815
1428	1611
1428	4649
1429	2035
1429	2541
1429	3356
1430	2452
1430	2600
1431	2746
1431	2761
1431	3212
1431	3290
1432	1564
1432	2802
1432	3270
1432	3582
1432	3934
1432	3941
1433	1596
1433	3183
1433	3408
1434	1627
1434	1741
1434	3086
1434	4699
1435	1535
1435	4218
1436	2069
1436	3698
1436	4010
1436	4162
1437	2671
1437	2700
1437	3945
1437	4243
1438	2935
1439	3695
1441	3338
1441	3610
1442	2006
1442	2250
1442	4719
1443	4511
1444	1488
1444	2590
1445	1497
1445	1738
1445	2401
1445	4251
1445	4287
1446	1868
1446	2365
1446	4296
1447	1553
1447	1671
1448	2226
1448	3323
1449	2302
1449	4833
1450	3618
1450	4261
1451	2087
1451	4701
1452	3454
1453	2622
1453	3873
1453	4285
1453	4377
1454	1874
1454	4018
1454	4051
1455	3920
1455	4754
1456	2573
1456	3250
1456	3505
1457	1864
1457	1896
1457	2747
1457	2854
1457	3492
1457	3544
1458	1836
1459	2306
1459	2596
1459	3297
1459	4064
1459	4077
1461	1829
1461	2053
1461	2417
1461	2624
1461	2759
1462	1671
1462	1813
1462	2824
1462	3108
1462	3512
1463	2886
1463	3269
1463	4210
1463	4486
1464	2579
1464	3313
1464	3650
1465	4035
1465	4861
1467	1924
1467	2828
1467	4275
1467	4691
1468	2660
1468	3575
1469	1769
1469	1779
1469	2611
1469	4410
1469	4536
1469	4711
1470	1541
1470	3974
1470	4345
1470	4416
1471	2048
1471	4574
1472	3679
1472	3725
1472	4649
1473	2850
1473	3346
1474	1727
1474	4219
1475	2272
1475	2562
1475	3098
1475	4443
1476	3227
1476	3451
1477	2543
1477	2684
1478	2101
1478	4856
1479	2852
1479	3091
1479	3170
1479	3322
1480	2364
1481	3078
1482	2425
1483	2096
1483	4079
1484	1865
1484	3903
1484	4547
1484	4610
1485	2413
1485	4206
1485	4677
1486	2770
1486	3059
1486	3534
1487	3670
1487	4289
1488	3326
1488	4815
1489	2352
1489	3594
1489	3909
1490	2002
1490	2108
1490	2574
1490	2926
1492	3594
1493	3011
1493	3038
1493	3605
1493	4625
1493	4668
1494	2103
1494	3740
1495	1681
1495	4280
1496	3772
1496	4254
1496	4403
1497	1510
1497	2526
1497	3305
1497	4265
1497	4402
1499	2689
1499	2694
1499	2929
1499	3753
1499	4041
1499	4130
1499	4561
1499	4687
1499	4724
1500	2746
1500	3241
1501	1619
1501	2072
1501	4407
1501	4520
1502	1689
1502	1700
1502	3715
1502	4443
1503	1645
1503	3362
1503	4095
1504	1565
1504	3882
1504	4002
1504	4299
1504	4757
1505	2206
1505	2632
1506	1844
1506	2877
1506	3225
1506	3974
1507	3962
1507	4870
1508	4669
1509	1786
1509	3076
1509	3293
1509	4470
1510	4453
1510	4620
1510	4843
1511	2222
1511	2548
1511	2946
1511	3443
1511	3627
1511	4340
1512	2046
1512	2244
1512	3302
1512	4192
1513	3784
1513	3939
1514	2271
1514	2321
1515	4358
1515	4514
1516	4079
1517	3221
1517	3801
1517	4176
1517	4723
1518	1797
1518	3033
1519	2277
1519	3328
1519	3709
1519	4459
1520	2004
1520	2105
1520	3197
1521	2715
1521	3491
1521	3878
1521	4527
1522	2124
1522	2215
1522	3311
1522	4354
1522	4516
1523	1750
1523	1881
1524	1841
1524	2732
1524	3762
1525	1638
1525	2110
1525	4323
1526	1875
1527	2276
1527	2898
1527	3047
1528	1587
1528	2094
1528	2520
1529	1538
1529	2271
1529	3445
1529	4499
1530	1630
1530	4423
1531	1606
1531	4775
1532	1566
1532	2545
1532	3011
1532	3696
1532	3989
1533	2347
1533	3086
1534	2576
1534	3248
1534	4684
1534	4809
1535	3874
1536	1552
1536	4546
1537	4675
1538	4247
1539	1673
1539	1906
1539	2648
1539	4032
1540	1630
1540	2158
1540	3320
1541	1825
1541	3188
1541	3520
1541	3755
1542	3305
1542	3537
1543	3086
1543	4503
1543	4548
1544	1711
1544	3526
1544	3608
1545	2495
1545	3140
1545	3851
1546	2053
1546	2616
1546	3793
1546	3822
1546	4703
1547	4467
1548	2324
1548	2331
1548	2345
1548	3863
1549	1772
1549	2773
1549	3049
1549	4145
1549	4497
1550	1613
1550	3939
1550	4666
1551	2962
1551	3125
1551	4184
1551	4760
1552	3810
1553	2578
1553	2746
1553	3133
1553	3609
1553	4217
1555	1905
1555	3915
1556	1918
1556	3491
1557	2540
1557	2701
1557	2748
1557	2819
1557	4165
1557	4504
1557	4635
1558	1565
1558	2078
1558	4299
1558	4617
1558	4630
1559	2495
1560	3775
1560	4224
1561	3706
1561	4025
1562	1946
1563	4434
1564	2179
1564	2856
1564	3432
1564	4841
1565	3131
1565	3208
1565	3854
1566	3258
1566	3414
1566	4104
1566	4241
1567	3181
1568	3441
1569	2390
1569	2845
1569	2846
1569	3128
1569	3430
1570	2830
1571	1722
1571	1741
1572	3713
1572	3841
1572	4142
1572	4306
1572	4865
1573	2326
1573	3002
1573	4058
1573	4294
1574	2864
1574	3553
1574	3557
1574	4483
1575	1750
1575	3984
1575	4127
1576	1943
1576	2168
1576	2699
1576	4428
1577	1955
1577	3755
1577	4028
1578	2792
1578	2819
1578	3251
1579	1928
1581	4074
1581	4461
1582	3407
1582	3477
1583	3116
1583	4663
1584	3335
1586	2184
1586	3961
1586	3987
1586	4186
1586	4262
1587	1983
1587	2818
1588	3166
1588	3859
1589	2597
1589	2933
1589	3974
1589	4516
1590	4292
1591	1698
1592	1913
1592	2443
1592	2666
1593	3425
1593	4416
1594	3977
1594	4788
1595	2144
1595	2295
1595	3719
1596	2667
1596	4795
1597	1842
1597	2764
1597	3501
1598	1913
1598	2769
1598	2857
1598	3573
1599	1638
1599	4155
1599	4813
1599	4862
1600	2505
1601	2224
1602	2834
1602	3116
1603	1812
1603	2204
1603	2220
1603	4098
1603	4605
1604	2570
1604	2677
1604	4779
1605	1677
1606	3690
1606	4156
1607	3279
1607	4350
1608	1836
1608	3451
1609	1670
1610	2310
1611	2329
1611	2529
1611	3521
1611	4545
1612	1740
1612	2389
1612	3094
1612	4616
1613	2191
1613	2344
1613	3089
1614	3275
1614	4847
1615	2109
1615	3539
1615	4715
1616	3565
1616	3644
1617	3608
1617	4024
1618	1855
1618	2587
1618	3202
1618	3301
1618	3809
1618	4818
1619	3555
1620	1870
1620	3865
1621	1739
1621	2280
1621	2962
1621	3314
1622	3028
1623	2547
1623	3531
1625	3580
1626	1691
1626	3371
1626	4588
1628	2169
1628	2839
1628	3904
1629	2525
1629	2936
1629	4706
1630	1642
1630	2522
1630	3191
1631	1850
1631	2317
1631	3197
1631	3536
1631	4140
1631	4415
1632	2473
1632	2953
1633	3393
1633	3473
1634	2898
1634	3130
1635	1946
1635	2257
1635	2283
1635	2615
1635	2920
1635	3668
1636	3022
1637	1735
1637	2727
1637	2810
1638	1767
1638	1802
1638	2236
1638	2420
1638	3065
1638	3446
1639	3853
1639	4213
1640	1841
1640	2159
1640	3545
1640	4142
1640	4205
1640	4322
1641	2177
1641	2920
1641	2924
1641	4434
1641	4486
1642	1780
1643	2827
1643	3293
1643	4181
1644	1716
1644	3504
1644	3600
1644	4796
1645	1707
1645	3509
1645	3514
1646	1865
1646	1959
1646	3767
1646	3802
1647	3636
1648	1912
1648	2132
1648	2213
1648	2410
1648	3342
1648	3845
1649	1948
1649	2370
1649	3277
1649	3429
1649	3824
1649	4814
1650	4001
1651	3438
1652	1899
1652	3199
1652	4327
1653	4067
1653	4656
1654	3158
1654	3846
1654	4332
1655	2876
1656	2766
1656	4537
1657	2318
1657	2978
1657	2999
1657	4817
1658	2071
1658	2607
1658	2643
1658	3008
1658	3835
1658	4714
1659	3395
1660	3131
1660	3591
1660	4585
1661	2604
1662	1960
1662	2421
1662	3112
1662	4469
1663	2319
1663	4364
1664	2580
1664	4035
1664	4846
1665	3974
1666	2183
1666	4223
1666	4761
1667	4274
1667	4701
1667	4766
1668	2399
1668	2651
1668	2681
1668	4278
1668	4346
1669	2217
1669	3906
1670	2129
1670	2254
1670	4019
1671	3093
1671	3131
1671	4584
1672	1850
1672	2310
1672	2884
1673	1838
1673	1855
1674	1815
1674	2496
1674	2947
1674	3698
1674	3920
1676	2282
1676	2951
1676	3420
1676	3469
1677	2757
1677	4868
1678	1854
1678	1926
1678	2027
1678	2434
1678	4837
1679	1944
1679	4224
1680	1787
1680	2263
1680	2861
1682	3221
1682	3394
1683	1952
1683	2017
1683	2138
1683	2459
1683	3811
1683	4350
1684	2114
1684	3907
1684	4759
1685	1730
1685	3681
1686	2326
1686	2925
1686	3573
1686	4332
1686	4389
1686	4798
1687	3656
1687	4465
1688	2596
1688	4213
1688	4836
1689	2868
1689	3069
1689	3466
1689	4050
1690	2999
1690	3458
1690	3539
1690	4842
1691	3525
1692	2802
1692	3510
1693	3675
1694	3246
1694	4575
1694	4702
1695	4057
1696	2842
1696	4448
1697	1968
1698	2356
1698	4142
1698	4830
1699	2889
1699	4697
1700	2594
1700	4789
1702	2447
1702	3164
1702	3678
1702	3872
1702	4006
1702	4429
1702	4583
1703	1950
1704	1772
1705	2922
1706	2811
1706	3846
1707	1717
1707	2279
1707	2395
1707	2516
1707	4143
1708	1826
1708	2005
1708	2010
1708	4248
1709	2187
1709	4722
1710	1863
1710	3097
1710	3103
1710	3411
1710	3602
1710	4213
1710	4556
1711	4791
1712	2225
1713	2708
1713	3271
1713	3615
1714	2405
1714	2951
1714	3011
1714	3332
1714	3611
1715	2667
1715	4267
1716	2087
1716	2484
1716	3123
1716	3495
1716	3637
1716	3891
1718	3340
1718	3391
1718	3469
1719	2923
1719	3098
1719	3755
1719	4282
1720	2051
1720	2308
1720	3068
1720	3203
1720	4532
1720	4628
1721	4733
1722	1903
1722	3739
1723	2421
1723	4101
1725	2214
1725	3238
1725	4407
1726	1855
1726	3172
1726	3352
1727	2757
1727	2866
1728	1839
1728	2712
1728	2756
1728	3417
1729	2848
1730	4366
1731	2379
1731	2380
1731	2474
1731	3180
1731	3200
1731	4147
1732	1866
1733	2317
1734	2430
1735	1884
1735	3567
1736	3355
1737	4095
1738	4324
1739	3599
1739	4673
1739	4811
1740	2206
1740	3116
1740	4340
1741	3008
1741	3630
1742	1938
1742	2422
1742	3028
1742	3758
1743	2714
1743	3082
1743	3196
1744	1873
1744	2123
1745	2658
1745	3194
1745	4218
1746	3263
1746	3997
1747	3056
1747	3717
1748	2795
1749	1753
1749	2370
1749	2451
1749	3656
1750	4827
1751	1892
1751	3220
1752	2176
1752	2225
1752	2451
1752	3076
1753	1874
1753	2380
1753	3333
1753	4383
1753	4540
1753	4819
1754	2668
1754	4620
1755	1937
1755	2633
1755	3726
1756	2783
1756	4479
1757	2405
1757	3038
1757	3803
1757	4489
1758	1998
1758	2825
1758	4130
1758	4277
1758	4337
1759	3625
1759	4181
1760	2501
1760	3079
1760	4665
1762	2450
1762	4841
1763	4764
1763	4863
1765	1971
1766	2477
1766	4867
1767	2286
1767	2737
1767	3080
1767	4290
1768	2160
1768	4114
1768	4234
1768	4301
1769	4362
1770	2608
1770	3637
1771	2424
1771	3069
1771	3287
1773	2315
1773	3868
1773	4870
1774	2462
1774	3187
1774	4325
1775	2063
1775	2146
1776	3943
1777	2576
1778	2387
1778	2587
1778	2625
1778	3576
1778	4209
1779	2239
1779	4493
1780	2643
1780	2821
1780	2901
1780	2940
1780	4139
1781	2641
1782	1847
1782	2253
1782	3003
1784	4711
1785	2130
1785	2937
1785	3006
1785	3120
1785	4080
1785	4566
1786	2645
1787	2696
1787	4547
1788	2307
1788	2765
1788	3413
1789	2300
1789	3293
1789	3868
1790	1975
1790	2440
1791	2199
1791	3555
1792	2631
1793	4207
1793	4219
1793	4872
1794	1980
1794	2082
1795	2077
1795	3359
1796	2214
1796	2965
1796	2968
1796	3857
1797	2262
1797	3190
1797	4003
1797	4129
1798	2205
1798	2341
1799	4415
1799	4762
1800	1878
1800	2138
1800	2357
1800	2874
1800	3304
1801	1851
1801	3080
1801	3694
1801	3992
1802	2277
1802	2665
1802	2952
1802	3495
1802	3949
1802	4652
1802	4824
1803	2119
1803	2525
1803	2629
1803	2959
1803	3009
1805	2529
1805	3102
1807	2593
1807	4447
1808	1878
1808	3940
1808	4168
1808	4437
1809	3166
1810	4737
1811	3059
1811	3557
1811	3992
1812	2485
1812	3134
1812	3163
1812	3745
1812	3834
1812	4716
1814	4816
1815	2416
1815	2930
1815	4563
1816	2930
1817	2280
1817	3367
1817	3698
1817	3795
1817	3985
1817	4632
1818	1912
1818	4033
1818	4303
1819	1867
1819	2177
1819	2294
1820	1853
1820	4400
1820	4761
1821	3159
1821	4450
1822	2179
1822	3043
1822	3374
1822	3488
1822	4079
1822	4137
1823	2708
1824	2249
1824	2267
1824	3580
1825	2383
1825	4124
1825	4676
1825	4684
1825	4862
1826	1843
1826	2599
1826	3667
1826	4471
1827	2256
1827	4166
1827	4402
1828	1850
1828	2675
1828	3138
1828	3796
1828	4259
1829	3621
1830	2253
1830	2334
1830	3384
1830	3689
1830	4258
1831	2089
1831	2455
1831	2503
1832	2053
1832	3811
1832	4223
1832	4478
1833	2481
1833	2596
1833	2711
1834	1865
1835	3070
1836	1858
1836	3465
1837	2894
1837	3346
1837	3400
1838	4795
1839	3310
1839	3773
1839	4009
1839	4375
1840	2899
1841	2327
1841	4857
1843	1921
1843	2945
1843	3059
1843	4280
1844	2386
1844	4210
1845	3049
1845	3082
1845	3624
1846	2922
1847	2025
1847	2210
1847	3189
1847	3819
1848	3360
1848	3586
1848	3862
1850	2097
1850	2899
1851	2722
1853	4688
1854	2320
1854	2377
1854	2913
1855	3357
1856	2344
1856	2702
1856	3105
1857	2563
1857	3412
1857	3978
1857	4395
1858	2323
1858	3323
1858	3670
1858	4361
1859	2262
1860	2220
1860	3453
1860	3520
1861	2834
1861	3010
1861	3760
1862	2366
1864	2260
1864	2554
1864	4163
1864	4506
1865	2149
1865	2870
1865	4411
1866	4504
1867	3637
1867	3942
1868	2293
1868	3454
1868	3820
1868	3951
1868	4537
1869	4370
1870	2688
1870	2725
1870	3234
1872	1991
1872	3564
1872	3625
1872	4608
1873	2942
1873	3772
1874	2148
1874	4494
1875	2552
1875	3694
1876	3061
1876	3714
1876	3834
1877	1981
1877	2081
1877	4056
1877	4204
1878	2540
1878	2862
1878	3465
1879	2605
1879	4865
1880	4772
1881	2380
1881	3004
1881	3095
1881	3341
1882	4725
1882	4726
1882	4784
1883	2797
1883	3585
1885	2125
1885	2336
1885	2592
1885	3614
1885	3777
1886	1989
1886	4088
1887	2418
1887	2656
1887	2843
1887	3318
1887	3738
1887	4289
1887	4659
1888	2765
1888	4793
1888	4823
1889	2670
1889	4716
1889	4724
1890	2859
1891	2263
1892	4285
1893	4334
1894	2269
1894	3489
1895	4116
1898	2286
1898	2753
1898	3404
1898	3567
1899	4234
1900	2476
1900	2900
1900	4811
1901	2351
1901	2450
1901	2798
1901	3220
1901	3698
1901	4131
1901	4552
1902	2794
1902	4347
1903	3882
1904	2273
1904	3314
1904	4123
1905	2534
1905	4749
1906	3405
1906	3754
1907	4119
1908	2550
1909	3224
1909	3654
1909	4246
1910	2174
1910	2297
1910	2636
1910	3200
1911	2777
1911	3116
1911	3127
1911	3151
1911	3576
1912	3976
1912	4089
1912	4093
1913	1988
1913	2213
1913	2727
1913	3144
1915	2194
1915	2649
1915	3343
1915	4125
1916	2323
1916	2786
1916	2925
1917	3808
1917	3975
1917	4158
1917	4692
1918	3012
1918	4012
1919	2800
1919	3948
1919	4373
1920	3981
1921	2256
1921	2787
1921	3261
1921	3278
1921	4278
1922	2112
1922	2841
1922	3352
1922	3605
1922	4196
1923	2517
1923	3774
1923	3942
1923	4691
1924	3557
1924	3976
1925	2175
1925	2351
1925	4636
1926	4332
1927	3649
1927	4719
1928	2076
1928	2353
1929	2501
1929	2738
1929	3521
1930	3046
1930	3098
1930	3716
1932	2530
1932	2631
1932	4802
1933	3479
1933	3959
1933	4041
1933	4483
1934	3651
1934	3730
1935	2867
1935	2935
1935	4498
1936	4624
1937	3146
1937	3840
1938	2019
1938	2210
1938	2485
1938	4037
1938	4422
1939	2786
1939	3633
1939	3882
1940	3675
1941	2197
1941	2354
1941	4644
1942	2239
1942	3399
1943	2337
1943	4839
1944	2145
1944	3177
1944	3394
1944	3784
1944	4445
1945	2118
1945	4509
1945	4626
1947	3289
1948	2259
1948	3674
1948	4086
1949	3547
1949	4333
1949	4576
1950	2413
1951	2817
1951	3555
1952	2212
1952	2895
1952	3009
1952	3043
1953	4762
1954	2694
1954	4314
1955	3149
1956	2031
1956	2235
1956	4442
1957	2637
1957	2642
1957	3633
1958	3026
1958	4815
1959	2083
1959	2345
1959	3137
1959	3953
1960	2696
1960	2905
1960	3213
1960	3502
1961	3263
1961	3344
1962	3216
1962	3829
1962	4120
1962	4429
1962	4572
1965	2146
1965	2476
1966	2081
1966	2152
1967	3007
1967	4027
1968	2816
1968	4497
1969	3335
1970	2780
1970	4434
1971	2501
1972	2526
1972	2676
1972	3583
1972	4320
1972	4416
1973	2830
1973	4852
1974	2786
1974	3140
1974	4491
1975	2902
1975	3468
1975	3840
1975	4168
1976	4350
1977	2399
1977	2595
1977	4856
1978	3110
1979	2694
1979	3266
1979	4631
1980	2416
1980	3441
1980	4203
1980	4512
1981	2217
1981	3159
1982	4024
1983	2371
1983	2944
1983	3182
1983	4257
1984	3547
1984	4052
1985	2496
1985	2684
1985	3746
1985	3943
1986	3422
1986	4399
1987	3877
1987	4620
1988	3385
1988	3459
1988	3648
1989	4224
1989	4480
1990	3180
1990	4394
1990	4796
1990	4861
1991	3398
1991	3601
1992	4553
1993	2890
1994	2327
1995	3410
1995	4273
1995	4476
1997	2729
1997	3136
1997	3438
1997	3704
1998	3619
1999	2567
1999	2957
1999	4833
2000	2268
2000	2374
2000	3122
2001	2302
2001	2402
2001	2657
2001	3594
2001	4677
2002	2487
2002	4484
2003	4072
2003	4299
2003	4829
2004	2597
2004	4413
2007	2171
2009	2022
2009	4643
2009	4654
2010	2094
2010	3734
2010	3822
2011	2579
2011	3071
2011	3187
2011	4719
2012	2183
2012	3402
2013	2202
2013	2246
2013	2282
2014	4327
2015	3655
2015	3864
2015	4763
2016	3205
2016	4460
2017	2203
2017	2450
2017	2873
2017	2936
2017	3184
2018	2251
2018	4027
2019	3932
2019	4168
2019	4621
2020	2995
2020	4028
2020	4149
2021	4227
2022	2059
2022	3564
2022	4672
2023	3361
2023	4129
2024	3986
2025	2493
2025	2661
2025	3026
2025	3692
2026	2574
2028	2130
2028	2354
2028	2805
2028	3225
2028	3681
2028	4651
2029	2324
2029	3804
2030	2397
2030	2564
2030	3411
2031	3462
2033	2040
2033	2096
2034	2173
2035	2935
2036	2555
2036	3142
2036	3220
2037	3162
2038	3206
2039	2268
2039	3714
2039	4112
2040	2152
2040	2715
2040	3733
2041	2354
2041	2648
2041	4093
2043	4165
2043	4457
2044	2616
2044	2974
2045	2123
2045	2279
2045	4504
2046	4082
2046	4474
2047	2889
2047	2895
2047	3279
2047	4338
2048	2347
2048	2670
2048	3833
2048	4255
2048	4496
2048	4780
2049	3339
2049	4490
2050	2082
2050	2335
2050	3295
2050	4456
2052	2934
2052	2976
2052	3414
2052	4615
2053	2133
2053	2283
2053	3701
2054	2487
2054	2755
2054	3800
2054	4513
2054	4595
2054	4845
2055	3365
2055	4429
2056	3900
2056	4660
2057	2181
2057	2590
2057	3974
2058	2462
2058	4375
2059	2248
2059	2985
2059	4641
2060	4820
2061	4059
2061	4079
2062	4401
2062	4642
2063	2362
2064	2632
2064	2889
2064	4197
2064	4328
2064	4577
2064	4786
2065	4588
2065	4795
2066	3131
2067	3303
2068	2382
2068	2765
2068	3675
2068	4292
2069	2265
2069	2602
2069	3208
2069	4098
2070	4243
2071	3616
2073	2671
2074	2348
2074	3879
2075	2190
2075	3286
2075	4586
2076	4134
2077	2718
2077	2725
2077	2794
2077	3534
2077	4044
2078	2258
2078	3065
2079	2173
2079	2246
2079	4523
2079	4658
2080	2107
2080	4284
2081	2606
2081	4085
2081	4196
2082	3656
2083	2356
2083	4872
2084	2370
2084	2397
2084	2914
2084	3092
2084	3995
2085	2778
2085	4851
2086	2419
2086	2658
2086	4359
2087	2456
2087	3083
2088	2189
2090	2184
2090	4578
2091	2436
2091	4395
2091	4649
2092	3991
2095	2584
2095	2853
2095	3106
2095	4317
2096	2322
2097	4025
2097	4061
2098	3665
2099	2820
2100	2211
2100	4000
2101	2325
2101	4850
2102	2279
2102	3857
2102	4100
2102	4379
2103	4321
2104	2569
2104	2788
2104	3702
2104	3946
2104	4185
2105	2487
2105	3353
2105	4055
2105	4630
2106	3547
2106	3940
2107	3953
2109	2367
2109	2886
2109	3658
2109	4050
2110	2667
2110	3008
2110	3216
2110	4478
2110	4841
2111	3099
2111	3138
2111	3568
2111	3823
2111	4145
2111	4250
2112	3890
2112	4242
2113	3689
2114	3084
2114	4070
2115	2918
2115	4255
2115	4529
2116	2727
2116	4814
2118	3005
2118	3164
2118	3369
2118	4340
2119	2324
2119	3648
2119	3653
2119	4123
2120	3138
2120	3261
2120	4656
2120	4818
2121	2723
2121	3049
2121	4776
2122	2674
2122	3076
2122	4329
2123	3014
2123	3782
2123	3933
2124	2176
2124	3734
2124	4161
2125	3187
2125	4519
2126	2779
2126	3371
2126	4063
2126	4424
2126	4487
2126	4547
2127	2467
2127	2513
2127	4403
2128	2181
2128	4187
2129	3280
2129	4529
2130	4413
2131	2425
2131	3859
2131	4871
2132	2746
2132	3940
2132	4256
2133	4429
2133	4868
2134	3596
2134	4788
2135	2842
2135	4719
2136	2918
2136	3137
2136	3746
2137	4745
2138	4046
2139	2404
2139	4156
2140	3991
2141	2369
2141	4434
2142	2385
2142	3068
2142	3491
2143	3376
2143	3659
2143	3804
2143	4556
2144	3127
2144	3252
2145	2935
2146	2481
2146	2869
2146	4354
2147	2228
2147	4366
2149	4418
2150	3869
2151	2795
2151	3175
2152	2314
2153	2288
2153	2382
2153	2613
2153	3932
2153	4674
2154	2781
2154	3778
2155	4501
2156	2914
2156	3012
2156	3013
2156	3454
2156	4051
2157	2621
2158	3150
2160	3107
2160	4755
2161	2875
2161	4062
2162	2609
2162	3226
2163	3190
2164	2597
2164	3410
2164	3471
2164	3776
2164	4183
2164	4390
2165	2498
2165	2631
2165	3669
2165	4396
2166	2952
2166	3667
2166	4334
2167	2891
2168	2520
2168	4765
2168	4869
2169	2539
2169	3234
2169	4665
2170	3449
2170	4846
2171	2509
2171	3486
2171	4163
2171	4804
2172	3745
2173	2882
2174	2263
2174	2805
2174	3031
2174	3893
2175	2229
2176	2495
2176	3839
2177	2860
2177	3238
2177	4411
2178	3135
2178	3791
2179	2270
2179	3442
2179	3546
2179	3580
2179	4180
2180	3048
2180	3712
2180	4678
2181	3348
2181	3819
2182	2432
2182	2651
2182	2880
2182	3613
2183	2572
2183	3354
2183	3721
2183	3899
2184	2561
2184	3859
2185	2333
2185	4502
2186	2635
2186	2805
2187	2566
2187	3406
2187	4084
2188	2478
2188	2846
2188	3911
2188	4407
2188	4552
2188	4649
2189	3354
2189	3719
2189	3875
2189	4108
2190	4414
2191	4223
2192	2395
2192	2886
2192	3765
2193	2501
2193	3065
2194	2442
2194	4031
2195	2311
2195	4752
2196	2666
2196	2728
2196	3984
2196	4210
2196	4526
2196	4588
2197	3964
2197	4086
2197	4568
2198	3401
2199	2341
2199	3056
2199	4605
2200	2636
2200	4807
2201	3412
2201	3613
2202	3303
2202	3643
2202	4521
2203	2637
2203	3157
2203	3637
2203	3866
2204	3608
2204	4317
2205	2222
2205	4156
2205	4249
2206	4189
2208	2784
2208	3458
2210	2855
2210	3243
2210	4069
2211	3265
2211	4576
2212	2924
2212	3564
2212	3768
2212	4401
2213	2815
2213	3079
2214	3067
2215	3051
2215	4639
2215	4742
2216	2322
2216	3125
2216	3335
2216	3923
2217	3583
2218	2886
2219	3190
2220	2912
2220	3907
2220	4472
2221	2915
2221	3342
2221	3603
2221	3995
2221	4678
2222	2280
2222	2542
2222	3411
2222	4272
2222	4515
2223	2229
2223	2506
2224	2802
2225	3500
2226	2610
2226	3761
2226	4075
2227	3087
2227	4359
2228	2858
2230	2271
2231	2553
2231	2703
2231	2893
2231	3002
2231	3763
2231	4486
2231	4518
2232	3505
2232	4055
2233	2454
2234	3009
2234	3408
2234	3974
2234	4055
2234	4186
2235	3383
2236	2942
2236	3804
2236	4422
2238	3522
2239	2482
2239	3954
2240	3312
2240	3784
2241	2594
2241	3516
2241	4023
2242	3423
2243	4301
2244	2659
2246	2654
2246	2730
2246	2871
2246	3993
2246	4004
2247	2569
2247	3608
2247	3768
2249	2298
2249	3640
2249	3804
2249	3990
2249	4828
2250	2650
2250	3859
2250	4469
2251	2427
2253	2452
2253	2674
2253	4237
2253	4399
2254	2985
2254	3753
2255	3506
2255	4126
2256	2939
2257	2277
2257	3349
2257	4679
2258	2818
2259	3657
2259	4466
2259	4653
2259	4792
2260	3263
2260	4832
2261	3331
2261	4037
2261	4771
2262	2694
2262	4664
2263	4157
2263	4513
2264	3078
2265	2725
2265	3123
2265	3144
2267	2569
2267	4771
2268	3469
2269	2716
2269	3778
2269	3971
2269	4459
2269	4628
2270	3311
2271	2332
2271	3781
2272	2433
2272	2919
2272	3335
2272	4782
2273	2999
2274	4284
2275	2922
2276	3077
2278	2705
2278	4144
2278	4586
2279	3607
2279	4774
2280	2513
2280	2576
2280	3296
2281	3117
2281	3739
2282	3323
2282	3358
2284	4004
2284	4108
2284	4367
2285	2701
2286	4288
2286	4487
2287	3082
2287	4599
2289	4733
2290	2369
2290	2573
2290	2753
2290	2855
2290	3028
2290	3977
2291	2326
2291	2378
2291	3785
2292	2891
2292	3432
2293	3632
2293	4091
2293	4730
2294	2421
2294	3406
2296	3003
2296	3140
2296	4803
2297	4520
2297	4832
2298	2596
2298	3969
2298	4714
2299	2423
2299	2841
2299	3030
2299	3818
2299	4626
2300	4428
2300	4822
2301	2371
2301	2811
2302	3582
2303	2317
2303	2566
2303	4597
2304	2327
2304	3840
2304	4425
2305	2579
2305	3471
2305	3636
2305	4299
2305	4710
2305	4832
2306	2442
2306	2622
2306	4146
2306	4231
2307	2611
2307	2879
2307	3968
2308	4608
2309	3303
2309	3792
2309	4131
2309	4852
2310	3885
2311	3132
2312	3062
2312	3908
2313	3266
2313	3796
2314	2698
2314	3289
2315	3565
2315	3614
2316	2318
2316	3249
2317	3371
2318	2645
2318	3089
2318	3515
2318	3665
2319	2997
2319	4385
2319	4598
2321	3042
2322	3944
2322	4306
2323	4491
2324	3468
2325	4159
2325	4758
2327	3426
2327	4505
2328	2829
2328	2976
2329	2332
2329	2594
2329	2690
2329	3238
2330	4206
2331	4268
2332	3720
2334	4467
2336	2897
2336	3422
2336	4300
2336	4373
2337	2622
2337	3407
2337	3882
2337	4420
2337	4495
2338	4387
2339	3588
2339	4836
2341	3589
2341	3685
2341	4069
2342	3932
2343	2554
2343	2843
2343	3015
2343	3415
2344	2389
2344	2512
2344	2571
2345	4040
2345	4128
2347	2454
2347	3152
2347	4241
2347	4734
2349	3530
2349	4024
2350	2625
2350	3227
2350	4785
2351	2995
2351	4306
2352	3496
2354	2635
2354	3453
2354	4399
2354	4793
2355	2980
2355	3463
2355	4138
2356	2570
2356	3879
2357	2556
2357	2742
2357	4026
2357	4043
2357	4617
2358	2847
2358	3131
2359	3309
2360	4836
2361	2716
2361	2935
2361	3030
2361	4708
2362	3926
2363	3376
2363	4014
2363	4670
2364	4199
2364	4551
2365	2997
2365	4077
2365	4189
2366	2959
2366	3867
2366	4566
2367	2725
2367	3419
2368	2981
2368	3053
2369	2827
2369	3280
2369	4085
2369	4614
2370	2880
2370	3197
2370	4254
2371	3587
2371	3910
2372	2711
2372	3293
2372	4500
2372	4845
2373	3835
2373	4269
2374	2531
2374	3089
2374	4690
2375	3267
2375	4053
2375	4250
2376	2524
2377	3963
2377	4276
2377	4591
2377	4615
2378	3017
2378	3258
2378	3584
2381	2836
2381	3794
2381	4436
2382	3391
2382	3634
2383	3486
2384	2566
2385	2748
2385	3808
2385	4145
2386	3041
2386	3756
2386	4147
2386	4616
2387	2762
2387	3904
2388	2512
2388	3047
2388	3048
2389	2458
2389	3004
2389	3979
2389	4621
2390	2907
2390	3430
2390	3519
2390	4381
2390	4506
2390	4507
2390	4833
2391	3127
2391	4147
2392	2795
2392	2842
2393	4344
2393	4522
2393	4574
2394	2509
2394	3580
2394	3772
2395	2916
2395	3667
2396	3519
2397	2651
2397	3891
2397	3949
2397	4434
2398	3607
2398	3710
2399	2445
2400	2439
2400	3289
2401	3124
2401	3268
2401	3313
2401	4760
2402	4041
2403	3213
2403	3550
2403	3756
2403	4683
2404	3632
2405	4619
2406	2724
2406	3193
2406	3840
2406	4465
2406	4746
2407	3215
2407	3917
2407	4136
2408	3089
2408	3326
2408	4680
2409	4652
2409	4854
2410	3236
2410	3568
2410	4459
2412	2768
2412	4196
2413	3228
2413	4097
2413	4843
2414	2738
2414	3293
2414	3837
2414	4687
2414	4817
2414	4858
2415	2603
2415	3047
2415	3084
2415	4687
2416	2498
2417	2444
2417	3265
2417	3821
2418	2904
2418	3892
2418	4210
2418	4437
2419	3032
2419	4589
2420	2626
2421	3238
2422	2492
2422	3204
2422	3251
2422	4173
2422	4518
2423	4464
2424	3509
2425	2664
2426	3703
2426	4319
2427	3036
2427	3959
2427	4419
2427	4644
2427	4770
2427	4831
2428	2870
2429	3382
2429	4713
2429	4735
2430	4156
2431	3513
2432	3443
2432	3942
2433	4465
2433	4674
2434	4448
2435	4808
2437	3502
2437	3996
2437	4110
2438	3568
2439	4358
2440	2965
2440	3361
2440	3510
2441	4325
2442	3452
2442	4762
2442	4810
2443	3075
2443	3545
2443	4108
2444	4537
2445	2610
2445	2678
2445	4183
2445	4632
2448	3374
2449	2693
2449	3528
2449	4470
2450	4065
2450	4213
2450	4324
2451	2454
2451	2771
2451	2864
2451	3287
2452	3712
2452	3735
2453	3365
2453	4135
2453	4500
2453	4699
2455	4252
2456	3644
2457	3485
2457	3565
2459	2535
2460	3117
2460	4097
2460	4102
2461	3008
2461	3467
2461	4424
2461	4509
2461	4681
2462	2933
2462	3511
2462	4585
2462	4725
2463	3067
2464	2478
2465	3900
2466	3692
2467	3584
2467	4307
2468	3141
2468	4249
2469	3083
2469	3479
2469	3664
2469	3853
2469	4175
2470	2637
2471	2673
2471	2935
2471	3415
2471	3965
2471	4723
2472	4697
2473	3885
2473	4047
2473	4120
2473	4121
2475	3243
2475	3275
2475	3863
2477	4596
2478	3071
2479	2871
2479	4391
2480	2596
2480	2762
2480	3780
2480	4042
2481	4104
2482	4700
2482	4774
2483	3041
2483	3345
2486	2709
2486	3816
2487	2898
2487	3048
2488	3417
2488	4083
2488	4101
2490	2946
2490	3920
2491	3524
2491	3777
2491	4242
2492	4718
2493	4698
2493	4704
2494	4371
2494	4853
2494	4856
2495	2917
2496	4874
2497	4032
2498	2670
2498	2799
2498	3563
2498	4660
2498	4874
2499	4113
2499	4243
2499	4329
2500	2630
2500	3365
2500	3559
2501	4694
2502	2574
2502	3647
2502	3726
2502	3735
2503	3959
2503	4407
2504	4412
2504	4720
2505	4130
2505	4571
2506	3003
2506	4740
2507	3084
2507	3912
2507	4380
2508	3161
2508	3657
2508	4488
2509	4006
2510	3897
2511	3217
2511	4656
2512	4063
2513	2629
2513	4841
2515	3988
2515	4627
2516	2896
2516	3593
2517	3488
2517	4565
2518	3116
2518	4391
2518	4460
2518	4572
2519	3016
2519	4277
2519	4400
2520	3454
2520	3884
2520	4792
2521	2554
2521	3261
2523	4141
2524	3883
2525	2926
2525	4602
2527	3052
2527	3207
2527	3584
2527	4038
2528	4471
2529	3691
2530	3037
2530	3368
2531	3725
2532	3174
2532	3629
2532	4356
2533	3283
2533	4059
2533	4398
2534	2715
2534	4018
2535	3861
2536	2998
2537	3383
2537	3844
2537	4135
2538	3554
2538	3703
2538	3834
2539	2851
2540	3415
2540	3541
2541	2981
2541	3325
2542	3161
2544	3008
2544	3144
2544	3681
2545	3530
2545	3674
2546	3098
2546	3243
2547	4179
2548	2710
2548	4589
2548	4853
2550	4637
2551	2741
2551	3121
2551	4360
2552	2762
2552	3618
2552	3872
2553	4377
2553	4753
2554	4685
2557	2940
2557	4479
2558	3845
2558	4435
2558	4671
2559	2981
2559	3720
2559	3724
2560	2862
2560	4218
2561	3951
2563	3782
2563	4341
2564	4390
2565	2771
2565	4568
2566	3707
2567	2957
2568	2848
2568	3060
2568	3655
2569	2678
2569	2682
2569	3291
2569	3824
2569	4818
2570	4247
2571	3804
2571	4744
2571	4845
2572	2698
2572	3621
2573	3649
2573	4464
2574	4833
2576	2713
2576	3923
2577	2947
2577	3239
2578	2734
2578	3383
2579	3339
2579	4203
2580	2787
2581	3645
2581	4387
2582	2940
2582	4606
2582	4751
2582	4760
2583	2591
2583	2738
2583	2969
2585	3004
2585	3402
2585	4558
2586	3792
2587	3993
2588	3756
2588	4298
2589	3028
2589	3552
2591	3357
2592	2829
2592	2985
2592	4307
2592	4428
2593	4142
2593	4541
2595	2801
2595	4611
2596	2696
2596	2778
2596	3616
2596	3842
2598	3897
2598	4393
2598	4695
2598	4797
2599	4173
2599	4189
2599	4786
2600	2898
2600	3779
2600	3872
2600	3913
2600	4170
2601	2940
2601	4321
2603	3220
2603	3292
2604	2716
2604	3150
2604	3885
2609	2837
2609	4432
2610	2623
2610	2710
2611	3543
2612	3968
2612	4452
2613	4362
2613	4555
2614	3427
2614	3539
2614	4005
2614	4388
2615	3570
2615	3964
2615	4146
2615	4804
2616	3007
2616	3305
2616	3913
2616	4092
2616	4859
2617	4264
2617	4624
2618	4008
2618	4283
2618	4811
2619	2741
2619	3604
2620	4063
2620	4619
2621	3380
2621	3574
2623	4704
2624	2838
2624	3902
2625	3532
2626	3016
2627	3102
2628	3762
2628	4438
2631	3136
2632	2709
2633	2773
2633	4164
2634	3655
2635	3175
2637	3078
2637	3611
2637	4517
2638	3505
2638	3903
2639	3557
2641	2883
2641	3094
2641	3320
2642	2851
2642	3098
2644	3259
2644	3709
2647	3528
2647	3796
2647	4417
2648	3088
2648	4187
2648	4625
2649	2794
2650	3024
2650	3103
2650	3656
2650	3696
2652	4489
2653	2890
2653	2906
2653	3207
2654	2861
2654	2868
2654	3061
2654	3123
2655	3522
2656	4090
2656	4851
2657	3086
2657	3297
2658	2840
2658	3027
2659	3335
2659	4047
2661	3916
2661	4400
2661	4791
2663	4594
2664	3667
2664	4554
2665	2707
2665	4535
2666	2710
2666	3038
2666	3441
2666	4426
2667	3913
2668	3957
2669	4027
2669	4216
2670	4212
2671	2767
2671	3425
2671	4503
2672	3148
2672	4718
2673	2776
2673	4824
2674	3127
2674	3229
2674	3426
2674	3598
2674	4401
2676	2938
2676	3503
2677	3471
2679	3391
2679	4236
2680	2708
2680	3290
2680	3917
2680	4478
2680	4828
2681	2947
2681	3806
2681	4174
2681	4277
2682	2982
2682	3200
2683	2790
2685	2866
2685	3898
2686	2916
2686	3324
2686	4152
2687	2700
2687	3219
2687	3877
2687	4821
2689	3397
2689	3406
2690	3416
2690	3651
2690	3687
2690	3706
2690	4586
2691	3150
2694	3486
2694	4474
2695	3499
2696	2778
2696	3235
2696	4023
2697	3967
2699	2745
2699	2832
2699	4232
2700	3015
2700	4201
2701	4623
2702	3320
2703	3035
2704	4374
2704	4797
2705	4371
2706	3073
2707	3076
2707	3455
2707	4869
2709	3203
2709	3302
2709	4072
2709	4322
2710	2907
2711	3188
2711	4467
2712	3805
2712	3940
2713	3032
2713	3253
2713	3491
2713	4553
2714	3491
2715	2733
2715	4437
2715	4860
2716	3478
2716	4275
2716	4540
2717	3006
2717	3182
2718	3517
2718	3893
2718	3910
2718	4444
2718	4474
2720	3102
2720	3112
2721	3366
2722	3084
2722	3597
2722	4184
2722	4401
2723	2764
2723	2855
2723	4182
2724	2930
2724	3995
2724	4241
2725	3001
2725	3274
2726	2749
2726	3579
2727	2907
2727	3557
2727	4643
2728	4610
2729	3162
2729	3268
2730	3944
2730	4805
2731	3827
2732	3479
2732	3698
2732	4021
2734	3037
2734	4134
2735	3078
2736	2903
2736	3645
2737	3079
2737	4176
2737	4784
2738	3089
2738	3375
2739	3546
2739	4391
2740	3228
2740	3516
2740	3742
2740	4717
2740	4738
2741	3756
2742	3039
2742	3214
2743	3042
2744	4233
2745	3573
2745	4023
2745	4227
2746	2789
2746	3702
2747	3252
2747	3587
2747	4125
2747	4542
2747	4617
2748	3293
2748	4062
2750	3689
2751	3267
2751	4371
2752	3511
2752	3614
2752	3772
2754	2961
2755	3054
2755	3495
2756	3125
2756	3342
2757	3043
2757	4158
2757	4791
2758	3741
2758	3878
2758	4682
2759	2964
2760	4114
2761	3211
2762	2961
2762	3167
2763	4185
2764	3028
2764	3558
2764	3559
2765	3909
2766	3119
2767	4124
2768	2973
2768	4472
2770	4312
2771	3375
2771	3812
2771	3888
2772	3103
2772	3150
2773	2954
2773	4093
2774	2913
2776	4860
2778	4464
2779	3094
2779	3986
2779	4236
2779	4736
2780	4174
2781	3101
2781	3285
2781	4017
2782	3063
2782	4373
2783	2994
2783	4007
2783	4643
2784	3088
2784	4023
2784	4357
2786	3882
2786	4198
2786	4346
2787	4339
2787	4751
2789	3507
2789	3795
2789	3804
2789	4121
2791	2892
2793	3179
2794	3377
2794	3777
2794	4645
2795	3210
2795	3501
2795	3788
2795	4462
2796	3080
2796	3730
2797	3061
2797	3512
2797	4660
2798	3038
2800	3751
2800	4259
2800	4343
2800	4809
2801	2906
2801	3269
2801	3301
2803	4825
2804	4327
2805	3475
2805	3825
2806	3707
2806	4579
2806	4646
2807	2820
2807	4575
2808	3824
2808	3904
2809	3825
2810	4017
2811	3414
2811	4727
2812	3033
2812	4364
2813	4044
2813	4373
2813	4781
2814	3556
2814	3567
2818	3511
2818	4113
2819	3558
2820	3258
2820	3801
2820	4145
2821	3434
2821	4355
2821	4461
2822	4384
2822	4734
2823	3680
2824	2831
2824	4329
2825	4000
2825	4302
2826	3162
2827	2932
2827	3171
2827	3226
2827	3474
2828	4651
2829	2951
2829	3609
2829	3615
2830	3118
2830	3913
2831	3628
2831	4052
2833	3110
2833	4774
2834	3317
2834	3767
2834	4813
2836	3310
2837	3010
2837	4148
2837	4563
2838	2907
2839	4589
2840	3052
2840	3089
2841	3303
2841	3509
2841	3567
2841	4085
2842	3018
2842	3603
2843	3467
2843	3713
2844	3752
2844	4648
2845	3683
2845	4735
2846	3877
2846	4640
2847	3722
2848	3604
2849	3796
2849	4536
2849	4594
2850	3298
2850	3843
2852	2962
2852	3871
2852	4638
2854	2940
2854	2995
2854	3805
2854	4031
2855	3257
2856	3299
2856	4406
2856	4774
2858	2902
2858	3427
2858	4129
2859	3955
2861	3044
2861	3716
2861	4310
2862	4755
2863	3684
2863	4747
2864	3418
2866	3006
2866	3373
2866	4431
2866	4523
2868	3042
2868	3765
2868	4069
2868	4768
2869	4014
2869	4724
2872	3606
2872	3867
2872	4716
2873	4817
2874	3126
2874	3735
2875	4524
2876	3808
2876	3932
2877	3265
2877	3269
2877	3869
2878	3180
2878	3476
2878	4332
2879	3041
2879	3961
2880	4582
2881	4051
2882	3417
2882	4340
2882	4560
2883	3156
2883	3413
2884	3538
2884	3680
2884	3909
2884	4038
2885	3653
2885	3913
2885	4002
2886	3481
2886	3712
2887	4010
2887	4086
2887	4183
2888	4836
2889	2903
2889	4337
2890	3881
2890	4853
2891	2949
2891	3330
2891	4567
2894	4309
2895	3549
2895	4191
2895	4427
2895	4564
2896	4716
2897	3668
2898	4604
2898	4706
2899	4230
2899	4483
2900	4374
2901	3025
2901	3271
2902	4228
2903	3978
2905	3024
2906	3873
2906	4747
2908	3208
2908	3508
2910	3466
2910	4043
2911	4455
2912	3138
2912	4138
2913	4293
2913	4433
2914	2935
2914	4603
2915	3440
2915	4562
2916	4078
2917	3004
2917	3696
2917	3834
2918	3379
2919	3221
2919	3848
2920	3558
2924	3460
2925	4367
2926	4091
2927	3227
2928	4012
2928	4193
2928	4687
2930	3195
2930	3582
2930	3831
2931	2933
2931	4021
2932	3162
2932	4049
2934	3832
2935	3435
2935	3707
2935	4239
2935	4274
2936	3497
2936	4045
2937	4381
2938	3678
2938	3734
2938	4193
2938	4683
2938	4693
2940	3048
2941	3422
2941	3464
2941	4066
2942	4619
2943	4531
2944	3486
2944	3802
2946	3694
2946	4164
2947	4088
2947	4772
2948	3125
2948	4185
2948	4424
2949	3019
2949	4040
2949	4160
2950	2974
2950	4167
2952	4341
2952	4537
2953	4278
2954	3930
2955	3838
2955	4472
2956	3144
2956	3839
2956	4363
2956	4768
2957	3036
2957	4771
2958	3848
2959	3468
2959	3999
2960	3015
2960	4629
2961	3218
2961	3427
2961	3487
2961	4348
2961	4510
2962	3406
2962	4647
2963	3802
2964	3841
2964	4860
2966	3454
2968	3254
2969	4096
2969	4573
2971	3933
2971	4865
2972	3863
2973	3633
2973	4199
2973	4807
2975	4433
2976	4635
2978	3974
2979	3005
2979	3326
2979	4036
2980	4512
2980	4715
2981	3088
2981	3178
2981	4770
2983	3344
2983	3828
2983	4153
2984	3213
2984	3963
2985	4498
2987	3280
2988	4752
2988	4815
2989	2996
2989	3479
2989	3593
2990	3255
2991	4656
2991	4872
2992	3570
2994	3005
2996	3636
2997	3885
2997	4811
2999	3175
2999	3210
2999	4456
2999	4601
3001	4528
3003	3972
3003	4616
3004	3343
3005	3329
3005	3592
3007	4604
3008	3383
3008	4581
3009	3719
3009	4380
3011	3519
3012	3163
3012	3610
3012	4434
3012	4570
3013	3596
3016	3709
3016	4717
3017	3823
3017	4296
3017	4362
3018	4658
3019	3479
3019	3684
3019	4713
3020	3278
3022	4137
3022	4569
3023	4149
3024	4056
3024	4202
3025	3607
3026	4415
3026	4781
3029	4832
3030	3519
3030	4243
3030	4353
3030	4647
3031	3435
3031	3523
3031	3698
3032	4396
3033	3639
3033	3726
3035	3051
3035	3234
3036	3964
3038	3850
3038	4527
3038	4839
3039	4165
3039	4524
3040	3140
3040	3161
3040	3452
3040	4114
3043	3164
3043	4002
3043	4663
3047	3716
3048	3448
3048	4056
3048	4087
3048	4284
3049	3511
3049	4692
3051	3460
3052	3756
3054	4352
3055	3084
3055	4181
3055	4623
3055	4722
3055	4803
3057	3328
3058	3726
3058	4550
3059	3078
3059	3171
3059	3790
3059	3869
3059	4775
3060	3240
3061	3110
3062	3232
3062	3235
3062	3603
3063	4318
3064	3657
3064	4541
3066	3442
3067	3446
3067	3759
3067	4301
3067	4874
3068	3264
3068	3311
3069	3240
3069	3869
3069	4013
3070	3128
3070	3360
3070	3862
3070	4644
3070	4800
3072	4290
3073	3273
3073	4012
3074	3662
3074	4242
3075	4798
3076	4642
3077	3813
3079	4108
3081	3766
3081	3922
3081	4813
3081	4855
3082	4562
3083	3239
3083	3545
3084	4024
3084	4809
3085	4874
3086	3995
3088	3696
3088	4004
3088	4356
3088	4624
3088	4702
3092	3739
3093	3833
3093	3911
3094	3582
3094	3900
3094	4668
3097	3477
3098	4138
3098	4180
3099	3318
3099	3945
3099	4281
3099	4352
3101	3612
3101	4528
3102	3882
3102	3989
3103	3518
3103	4111
3103	4446
3103	4610
3104	4302
3104	4866
3106	4020
3107	3852
3108	3145
3108	3446
3108	3860
3109	3204
3109	3555
3109	4171
3111	4761
3113	3606
3114	3200
3114	3383
3114	4118
3115	3432
3115	3753
3115	4726
3117	3422
3117	4699
3118	4223
3118	4408
3121	3241
3121	4078
3122	3721
3123	4475
3123	4659
3123	4845
3124	3867
3124	4716
3126	4166
3127	3169
3127	3398
3128	3201
3129	3706
3129	3988
3129	4318
3130	4664
3132	3140
3133	4441
3134	4348
3136	3635
3137	4043
3138	4662
3138	4663
3141	4568
3141	4655
3143	3902
3145	4345
3146	3202
3146	4391
3147	4407
3149	4708
3150	3486
3151	4589
3152	3566
3153	3390
3153	3575
3153	3902
3153	4296
3154	3477
3154	4324
3156	3617
3156	4663
3157	3680
3157	4157
3158	4489
3159	4238
3159	4541
3159	4603
3159	4827
3160	4199
3162	4475
3163	3178
3164	4852
3165	4475
3165	4663
3166	3803
3166	4468
3167	4211
3167	4872
3168	4170
3168	4194
3169	3237
3169	4085
3170	3230
3170	4441
3172	3946
3174	4190
3175	3482
3175	3776
3175	3940
3176	4818
3177	3748
3177	4110
3179	3269
3180	3271
3181	3755
3181	4624
3184	4228
3184	4538
3185	3428
3185	3658
3186	3402
3186	4330
3187	4437
3189	3822
3189	4861
3191	3312
3193	4724
3194	4674
3195	3371
3195	4636
3196	3926
3197	4739
3198	3853
3200	3892
3201	3837
3201	4009
3203	3212
3203	3870
3204	3956
3204	4437
3205	4208
3206	3770
3207	3679
3207	4207
3207	4340
3207	4765
3208	3596
3208	3928
3209	3480
3209	4780
3210	3504
3210	4186
3211	3337
3211	3979
3212	4154
3213	3250
3213	3808
3214	3508
3214	4642
3216	4045
3217	4230
3217	4620
3217	4660
3219	3891
3219	4145
3219	4235
3219	4859
3220	3226
3220	3579
3220	4825
3221	3551
3221	4306
3222	3721
3222	3733
3222	4246
3223	3895
3224	3530
3225	3650
3225	3951
3228	4015
3229	3698
3230	3530
3230	4784
3233	4039
3234	4513
3237	3373
3237	4689
3238	3652
3238	4217
3239	3265
3240	3409
3241	3505
3244	3509
3244	4732
3245	3952
3245	4213
3246	3608
3246	4277
3247	3946
3247	4526
3248	4776
3249	3396
3249	3610
3249	4166
3249	4794
3250	3715
3250	4706
3250	4800
3251	3701
3251	3796
3251	3868
3252	3940
3252	3988
3252	4688
3253	3313
3253	4309
3253	4875
3255	4417
3256	4549
3256	4558
3257	3436
3257	4150
3258	4027
3259	4538
3260	3474
3261	3337
3261	3504
3264	4324
3265	4683
3266	4133
3266	4703
3267	3391
3267	3707
3267	3976
3267	4649
3270	3374
3270	4613
3271	3331
3272	4015
3273	3582
3274	3338
3274	3598
3274	4352
3275	3301
3275	3433
3275	3926
3276	3500
3276	4040
3277	3512
3278	3681
3279	4143
3281	3452
3281	4017
3281	4733
3282	4358
3282	4421
3284	4235
3285	4856
3286	3676
3289	4743
3290	4092
3290	4131
3291	3620
3291	3708
3291	3732
3293	4247
3293	4266
3294	4197
3295	4001
3295	4004
3295	4437
3296	3589
3297	3737
3297	4182
3298	3525
3298	4210
3298	4544
3300	3767
3300	3998
3300	4163
3304	4275
3306	3589
3306	3928
3306	4195
3308	3423
3309	4125
3311	4869
3312	3842
3313	4626
3314	3636
3314	4414
3315	3671
3315	4733
3316	3317
3316	4220
3317	3593
3318	3373
3319	4134
3320	4138
3320	4733
3323	4000
3323	4791
3324	3378
3324	3641
3324	3906
3324	4553
3325	4425
3325	4601
3328	4744
3329	3481
3330	4045
3331	4436
3332	4478
3333	3758
3333	3843
3333	4689
3334	4053
3335	3529
3335	3613
3336	3670
3336	4102
3337	3495
3337	3509
3337	3516
3337	3670
3337	3823
3337	4719
3338	3752
3338	4738
3339	3841
3339	3950
3342	4679
3342	4858
3343	3678
3343	4232
3343	4324
3343	4450
3346	3738
3346	4523
3347	3746
3348	4610
3349	3856
3351	3514
3352	3649
3353	4307
3353	4629
3354	4303
3356	4071
3357	4420
3357	4477
3357	4814
3358	3504
3359	4846
3360	4522
3363	4713
3364	4417
3365	3853
3365	4292
3366	4122
3367	3843
3369	4438
3371	3687
3372	4550
3372	4653
3373	4523
3374	4120
3374	4379
3375	4007
3377	3751
3377	3836
3378	4221
3379	4212
3380	3766
3383	4149
3383	4519
3383	4757
3384	4102
3384	4632
3385	4806
3386	3546
3386	4630
3387	3846
3388	4140
3388	4440
3388	4834
3389	4516
3390	4455
3391	3784
3391	4324
3391	4392
3392	3867
3394	4594
3395	3967
3399	3437
3401	3446
3401	3520
3401	3557
3406	3945
3406	4032
3407	3653
3408	4758
3410	4258
3411	4289
3413	4605
3415	3531
3415	3912
3415	4024
3418	4683
3418	4752
3419	4867
3420	3481
3421	4054
3422	4101
3423	3543
3424	4469
3424	4771
3426	3902
3426	4846
3428	3906
3428	4760
3429	4079
3430	4679
3432	4085
3434	4328
3435	4236
3436	3918
3436	4072
3436	4088
3436	4201
3436	4626
3438	4275
3439	4859
3440	4388
3442	3479
3443	3604
3443	4049
3443	4487
3444	4157
3444	4835
3444	4859
3445	3858
3445	4453
3445	4565
3445	4869
3446	4275
3447	3626
3447	3958
3447	4803
3448	3660
3451	4724
3452	4686
3453	4074
3453	4564
3455	4362
3457	4498
3458	3812
3458	4258
3459	3843
3461	3629
3461	4081
3462	4853
3465	3833
3469	4007
3469	4172
3469	4677
3473	3795
3474	3742
3475	3637
3478	4581
3480	3782
3482	4234
3484	4049
3485	4060
3487	3726
3487	3801
3488	4386
3489	4840
3492	3983
3493	3982
3496	3658
3496	4131
3496	4172
3497	4020
3497	4026
3498	4216
3500	4148
3501	3587
3504	4268
3504	4874
3505	3836
3507	3696
3508	3614
3508	3958
3508	4063
3509	3932
3509	4510
3511	3904
3512	4192
3516	4612
3517	3918
3517	4222
3517	4405
3520	3777
3520	4633
3521	3868
3521	4029
3521	4140
3521	4491
3522	4132
3523	3775
3523	4146
3524	3994
3525	3941
3525	4713
3527	4672
3528	4099
3532	4075
3533	3857
3534	3658
3534	4653
3535	4736
3536	3912
3536	4650
3537	3800
3538	4702
3540	3901
3540	4328
3541	4696
3542	3716
3543	3779
3543	3925
3544	3733
3544	4175
3544	4750
3545	4562
3545	4687
3547	4508
3548	3919
3549	4015
3549	4214
3550	4128
3550	4281
3551	4624
3552	4187
3552	4701
3553	4376
3554	4391
3555	4156
3555	4227
3555	4830
3556	3897
3556	4462
3556	4483
3557	4533
3557	4569
3559	4683
3561	3691
3563	3704
3567	4087
3567	4272
3567	4431
3568	4731
3569	4024
3569	4645
3570	3889
3573	3879
3573	3962
3574	4130
3576	3781
3576	4083
3577	3816
3578	4697
3579	4723
3581	4864
3584	4280
3586	4338
3587	4647
3587	4756
3590	4337
3590	4802
3592	4362
3593	4388
3594	4802
3595	3776
3595	4118
3598	4388
3599	4638
3601	3665
3601	4689
3604	4538
3605	3899
3605	4308
3607	3801
3608	4145
3610	4858
3612	4369
3612	4698
3614	4114
3614	4341
3618	4483
3619	4445
3621	4176
3630	4184
3631	4497
3632	4149
3632	4438
3632	4841
3633	3660
3633	4167
3635	4163
3637	4136
3638	3665
3641	3984
3642	4143
3642	4273
3643	4443
3646	4576
3647	4616
3647	4649
3648	4205
3650	4194
3651	4614
3651	4874
3652	3746
3652	3818
3652	4792
3654	3672
3655	4214
3655	4539
3657	3726
3657	4815
3659	4472
3659	4744
3662	3867
3663	4144
3663	4498
3665	4474
3666	3903
3667	3757
3667	3847
3671	4161
3671	4494
3671	4648
3672	3868
3673	3828
3676	3915
3676	4797
3677	4458
3678	3702
3681	3901
3683	4385
3686	4734
3689	4059
3689	4433
3695	3886
3697	3768
3697	4201
3698	4705
3699	4805
3703	4599
3704	4134
3704	4662
3705	4623
3708	4130
3708	4744
3709	3905
3710	3896
3712	4804
3713	4347
3715	4188
3716	3949
3716	4479
3717	3905
3717	3942
3717	3963
3717	4070
3718	3807
3719	4002
3720	3961
3720	4812
3726	4221
3727	3795
3727	4098
3727	4313
3730	3923
3732	4013
3732	4495
3732	4677
3733	4275
3734	4596
3736	3909
3738	4369
3741	4314
3741	4719
3742	4031
3743	4495
3744	4187
3745	4452
3745	4632
3745	4830
3746	3944
3748	3887
3748	4321
3748	4857
3749	4324
3751	3902
3752	3945
3752	4194
3753	3885
3753	3978
3755	4267
3756	3997
3758	4041
3758	4136
3758	4458
3759	4102
3759	4841
3760	3922
3760	4300
3761	4174
3763	4187
3763	4298
3764	4453
3765	4273
3765	4355
3768	4332
3770	3806
3770	4323
3770	4552
3770	4728
3773	4632
3775	4018
3775	4657
3777	4748
3781	4607
3783	4230
3784	4801
3785	3920
3786	3978
3786	4639
3787	4275
3787	4668
3788	4215
3788	4601
3788	4754
3790	4470
3791	4601
3794	4331
3796	4854
3797	4032
3800	4318
3801	3833
3802	4102
3802	4171
3802	4236
3803	4539
3805	4320
3805	4363
3806	3951
3806	4851
3807	3822
3808	3962
3812	4553
3813	4541
3814	4324
3815	3864
3815	4612
3817	4091
3818	4075
3818	4693
3819	3966
3820	3917
3821	4407
3821	4832
3822	4417
3823	4337
3823	4458
3823	4797
3824	4720
3827	4087
3827	4369
3828	4036
3829	3832
3829	4048
3830	4012
3830	4094
3831	4180
3833	4460
3834	4170
3837	4013
3839	4233
3839	4790
3843	4338
3844	4111
3844	4562
3844	4588
3845	4231
3845	4260
3845	4625
3846	3962
3846	4543
3848	4028
3849	4297
3855	3956
3858	4179
3859	4772
3862	3954
3863	3944
3864	4836
3865	4437
3865	4647
3866	4695
3867	4361
3867	4820
3869	4458
3869	4709
3870	4434
3870	4503
3872	4370
3876	4169
3877	4010
3880	4495
3881	4221
3883	3971
3885	4465
3885	4731
3887	4449
3888	4458
3889	4824
3893	4421
3893	4725
3894	4457
3895	4034
3896	4067
3896	4228
3896	4278
3900	4514
3904	4306
3904	4307
3905	4321
3907	4215
3907	4858
3908	4055
3909	3996
3911	4236
3912	4546
3913	4816
3913	4839
3914	4122
3914	4685
3914	4766
3916	4401
3917	4618
3918	4539
3918	4795
3919	4577
3921	3964
3921	4643
3922	3964
3923	4519
3923	4681
3923	4804
3924	4035
3924	4814
3926	4736
3927	3980
3928	4225
3928	4290
3930	4339
3936	4155
3936	4756
3937	4186
3938	4691
3943	4405
3944	4471
3944	4818
3945	4741
3946	4831
3947	4789
3950	4339
3951	4208
3951	4831
3960	4302
3961	4093
3964	4286
3965	4229
3966	4728
3967	4183
3967	4602
3971	4556
3971	4614
3972	4412
3972	4418
3973	4558
3975	4606
3976	4568
3977	4477
3977	4867
3978	4688
3979	4126
3979	4193
3980	4210
3980	4708
3982	4448
3984	4584
3987	4256
3987	4334
3987	4339
3989	4164
3991	4348
3994	4790
3996	4590
3996	4761
3997	4181
3997	4514
4003	4796
4004	4669
4005	4303
4005	4521
4005	4874
4006	4230
4007	4101
4009	4365
4011	4065
4013	4356
4015	4706
4016	4037
4018	4760
4021	4164
4022	4792
4025	4589
4027	4817
4031	4618
4036	4562
4036	4570
4038	4853
4039	4429
4041	4386
4042	4796
4043	4145
4043	4347
4043	4686
4043	4720
4044	4383
4044	4434
4044	4843
4049	4489
4052	4592
4057	4200
4057	4815
4058	4151
4058	4392
4060	4575
4062	4173
4062	4336
4063	4673
4067	4650
4069	4815
4070	4314
4071	4552
4074	4492
4075	4137
4076	4182
4078	4860
4080	4328
4081	4160
4081	4665
4085	4223
4086	4173
4088	4874
4089	4809
4090	4685
4091	4565
4093	4667
4093	4833
4093	4857
4095	4663
4095	4856
4096	4564
4099	4603
4100	4496
4104	4237
4105	4139
4107	4546
4107	4689
4109	4153
4112	4490
4114	4843
4115	4178
4117	4743
4118	4314
4119	4669
4121	4651
4122	4286
4125	4414
4126	4418
4129	4455
4130	4639
4130	4696
4131	4384
4133	4387
4133	4667
4135	4206
4137	4463
4138	4603
4141	4845
4143	4761
4144	4501
4146	4413
4147	4418
4150	4610
4154	4579
4155	4485
4157	4761
4158	4295
4161	4224
4161	4475
4162	4368
4162	4522
4164	4484
4167	4709
4167	4750
4167	4871
4168	4719
4169	4259
4171	4340
4173	4840
4174	4242
4174	4573
4176	4351
4176	4493
4179	4476
4184	4807
4185	4719
4187	4294
4187	4361
4197	4559
4201	4279
4205	4718
4209	4620
4210	4618
4211	4573
4212	4345
4217	4276
4218	4244
4218	4839
4219	4330
4222	4267
4223	4478
4225	4628
4227	4458
4227	4487
4231	4301
4231	4421
4232	4710
4239	4525
4240	4454
4243	4277
4245	4322
4245	4592
4246	4700
4249	4462
4254	4476
4258	4524
4260	4678
4266	4267
4271	4397
4281	4854
4283	4370
4283	4450
4283	4727
4285	4665
4293	4439
4297	4511
4310	4335
4314	4564
4317	4799
4318	4542
4318	4707
4319	4383
4325	4385
4326	4369
4329	4594
4331	4831
4332	4382
4333	4874
4337	4465
4339	4447
4346	4388
4349	4431
4353	4844
4355	4588
4359	4367
4362	4537
4365	4380
4372	4456
4374	4648
4374	4823
4375	4519
4375	4782
4379	4654
4384	4844
4390	4643
4398	4412
4399	4479
4399	4770
4400	4676
4406	4449
4409	4485
4416	4749
4416	4871
4417	4656
4418	4610
4418	4742
4422	4733
4426	4641
4428	4728
4428	4838
4429	4481
4429	4719
4430	4488
4430	4655
4432	4811
4440	4464
4440	4647
4440	4837
4445	4675
4445	4787
4447	4859
4449	4744
4449	4875
4452	4670
4455	4734
4456	4475
4456	4562
4458	4857
4459	4624
4460	4502
4468	4819
4469	4492
4469	4783
4470	4663
4476	4707
4476	4758
4476	4790
4484	4616
4487	4580
4488	4784
4492	4820
4495	4717
4496	4729
4499	4763
4502	4506
4504	4652
4506	4586
4508	4551
4508	4715
4510	4733
4513	4757
4514	4631
4518	4770
4520	4724
4521	4680
4524	4719
4525	4531
4531	4687
4534	4705
4537	4666
4539	4548
4542	4556
4542	4647
4543	4545
4544	4712
4546	4600
4546	4867
4548	4549
4556	4560
4558	4592
4576	4849
4583	4602
4589	4802
4614	4845
4615	4685
4621	4805
4632	4833
4634	4855
4639	4851
4640	4672
4645	4750
4646	4653
4647	4668
4648	4676
4667	4775
4668	4744
4672	4784
4679	4796
4682	4829
4691	4697
4692	4698
4693	4872
4709	4849
4710	4826
4722	4811
4746	4817
4754	4802
4780	4816
4791	4874
4809	4833
4811	4863
